Primitive Cell                          
   1.00000000000000     
    21.9163151289543912    0.0828848625394302    0.0000000000000000
   -10.8872314491056486   18.8893170243114845    0.0000000000000000
     0.0000000000000000    0.0000000000000000   20.0000000000000000
   O    N    H    C 
     6    15    21    30
Direct
  0.6980380186187389  0.5057148553269855  0.5222517126713484
  0.8075400894107432  0.2947430134771736  0.5239839457387987
  0.4890286923135605  0.1848386599310459  0.5288102324374080
  0.3812999943290478  0.5284988270562749  0.5871516741038434
  0.1425813318516234  0.5958831122783650  0.5937786994455507
  0.4493237934354681  0.8437828369705045  0.5974714568682344
  0.5874161462524441  0.6464399919723434  0.5866227329814464
  0.4629843842227714  0.6081852475683718  0.5137248374833945
  0.0574937728969118  0.4135640838278434  0.5893331424654917
  0.1422368939488123  0.5296246481816453  0.5041662641736124
  0.3518074736896750  0.9342532286277176  0.5924242538795284
  0.3824415955934271  0.8468139172958047  0.5102306167144661
  0.4728758314307981  0.5160373696502774  0.4635196916913529
  0.5033189566048790  0.4772422214852980  0.4543880248031513
  0.5871581821599960  0.4472369091393844  0.4761639051364241
  0.0404686307514766  0.5124597215909219  0.4497334809787645
  0.9714951220084700  0.4808700267047286  0.4406630194156378
  0.8585545491446283  0.4021776467541187  0.4699422129761572
  0.4702554566757442  0.9480002801066618  0.4571517837700583
  0.5087855896085145  0.0171812719257076  0.4479960273641268
  0.5430779091452109  0.1314188896416724  0.4746086571646728
  0.5431109241816969  0.3103794254630188  0.4938247524821406
  0.7671776450390837  0.4486792024111779  0.4886995909884106
  0.6812682261519640  0.2231910684826772  0.4905659904029136
  0.4578048051212775  0.7273128377391700  0.5540243123848683
  0.2644274744031705  0.5281009992126400  0.5475716279231833
  0.2592346269253625  0.7232933741029157  0.5513959027672470
  0.6258366988647097  0.6539904601456499  0.6192251203175516
  0.5559367683596150  0.6662682394444062  0.5994569891675852
  0.6439791632853371  0.5627967912646881  0.5582262801481406
  0.4693964384475535  0.6434746619414184  0.4773326468498453
  0.0268393459948513  0.3789041789694636  0.6248898123664475
  0.1083185298469047  0.4463110479276082  0.6017628736086564
  0.9180697931481703  0.3554930288274321  0.5622600440218051
  0.1702883133711026  0.5321060156528574  0.4627532746670937
  0.3476850904587394  0.9655333136558113  0.6274222289421445
  0.3323398387713326  0.8828733843468513  0.6047595807443145
  0.4353262397281341  0.0741013895095790  0.5649162372184975
  0.3559666063046905  0.8191582628859848  0.4689637192622058
  0.5532259077931201  0.4055292370574719  0.4475290927124149
  0.8501214808542983  0.4333079655423333  0.4376358300805094
  0.5822053160233267  0.1387710435196752  0.4425005006423532
  0.7315405834806015  0.3359958545302604  0.4851978724603043
  0.6723477267018581  0.2680392362732889  0.4863249846617776
  0.6048466177447338  0.2594140890462171  0.4876014781559093
  0.5963721668268178  0.3191342200120886  0.4880553066135604
  0.7226131454004943  0.3950967019158043  0.4852838369701900
  0.8020561319201391  0.3414748295542509  0.4942908876423360
  0.5401254368830877  0.1891024824222285  0.4984863525519927
  0.2536402930979946  0.6218434632827581  0.5476903787332361
  0.2894809660473499  0.6958936289751989  0.5493663660084493
  0.3628563358300454  0.7334347935543164  0.5505624342624031
  0.4006003120416466  0.6969917623892599  0.5506947866683305
  0.2913241440970538  0.5857100512731037  0.5472291070202431
  0.1749199797259564  0.5827488005390649  0.5510281611583991
  0.4029792085628827  0.8125107202995778  0.5554706700728715
  0.5952787972780484  0.5509592424575374  0.5331914522410983
  0.5616679207289721  0.5903398752581523  0.5440566411998446
  0.4996990632975127  0.5698569558570554  0.5062059164432213
  0.9543884283481106  0.4006068791309687  0.5322982458169463
  0.0270293208647061  0.4348581033497751  0.5423205190749769
  0.0676981486067945  0.4918263250889154  0.4981664542155784
  0.4441338814529416  0.0367305598042549  0.5363601889638971
  0.4046177196564642  0.9638250698029864  0.5466378782067380
  0.4209103839083497  0.9217776202623611  0.5041005389966458
  0.6549081261332290  0.3868720958762069  0.4866820736717514
  0.6495966359208296  0.4523325069304747  0.4962037966441954
  0.3649822317560236  0.6232403896674796  0.5487254452488202
  0.4025267967552750  0.5814601979163498  0.5519566272446426
  0.5630089170645576  0.4945457734082410  0.4886902463804432
  0.9298293812834757  0.4268819448002361  0.4817899405291612
  0.4960525514166534  0.0601491387059454  0.4872334977603003
 
  0.00000000E+00  0.00000000E+00  0.00000000E+00
  0.00000000E+00  0.00000000E+00  0.00000000E+00
  0.00000000E+00  0.00000000E+00  0.00000000E+00
  0.00000000E+00  0.00000000E+00  0.00000000E+00
  0.00000000E+00  0.00000000E+00  0.00000000E+00
  0.00000000E+00  0.00000000E+00  0.00000000E+00
  0.00000000E+00  0.00000000E+00  0.00000000E+00
  0.00000000E+00  0.00000000E+00  0.00000000E+00
  0.00000000E+00  0.00000000E+00  0.00000000E+00
  0.00000000E+00  0.00000000E+00  0.00000000E+00
  0.00000000E+00  0.00000000E+00  0.00000000E+00
  0.00000000E+00  0.00000000E+00  0.00000000E+00
  0.00000000E+00  0.00000000E+00  0.00000000E+00
  0.00000000E+00  0.00000000E+00  0.00000000E+00
  0.00000000E+00  0.00000000E+00  0.00000000E+00
  0.00000000E+00  0.00000000E+00  0.00000000E+00
  0.00000000E+00  0.00000000E+00  0.00000000E+00
  0.00000000E+00  0.00000000E+00  0.00000000E+00
  0.00000000E+00  0.00000000E+00  0.00000000E+00
  0.00000000E+00  0.00000000E+00  0.00000000E+00
  0.00000000E+00  0.00000000E+00  0.00000000E+00
  0.00000000E+00  0.00000000E+00  0.00000000E+00
  0.00000000E+00  0.00000000E+00  0.00000000E+00
  0.00000000E+00  0.00000000E+00  0.00000000E+00
  0.00000000E+00  0.00000000E+00  0.00000000E+00
  0.00000000E+00  0.00000000E+00  0.00000000E+00
  0.00000000E+00  0.00000000E+00  0.00000000E+00
  0.00000000E+00  0.00000000E+00  0.00000000E+00
  0.00000000E+00  0.00000000E+00  0.00000000E+00
  0.00000000E+00  0.00000000E+00  0.00000000E+00
  0.00000000E+00  0.00000000E+00  0.00000000E+00
  0.00000000E+00  0.00000000E+00  0.00000000E+00
  0.00000000E+00  0.00000000E+00  0.00000000E+00
  0.00000000E+00  0.00000000E+00  0.00000000E+00
  0.00000000E+00  0.00000000E+00  0.00000000E+00
  0.00000000E+00  0.00000000E+00  0.00000000E+00
  0.00000000E+00  0.00000000E+00  0.00000000E+00
  0.00000000E+00  0.00000000E+00  0.00000000E+00
  0.00000000E+00  0.00000000E+00  0.00000000E+00
  0.00000000E+00  0.00000000E+00  0.00000000E+00
  0.00000000E+00  0.00000000E+00  0.00000000E+00
  0.00000000E+00  0.00000000E+00  0.00000000E+00
  0.00000000E+00  0.00000000E+00  0.00000000E+00
  0.00000000E+00  0.00000000E+00  0.00000000E+00
  0.00000000E+00  0.00000000E+00  0.00000000E+00
  0.00000000E+00  0.00000000E+00  0.00000000E+00
  0.00000000E+00  0.00000000E+00  0.00000000E+00
  0.00000000E+00  0.00000000E+00  0.00000000E+00
  0.00000000E+00  0.00000000E+00  0.00000000E+00
  0.00000000E+00  0.00000000E+00  0.00000000E+00
  0.00000000E+00  0.00000000E+00  0.00000000E+00
  0.00000000E+00  0.00000000E+00  0.00000000E+00
  0.00000000E+00  0.00000000E+00  0.00000000E+00
  0.00000000E+00  0.00000000E+00  0.00000000E+00
  0.00000000E+00  0.00000000E+00  0.00000000E+00
  0.00000000E+00  0.00000000E+00  0.00000000E+00
  0.00000000E+00  0.00000000E+00  0.00000000E+00
  0.00000000E+00  0.00000000E+00  0.00000000E+00
  0.00000000E+00  0.00000000E+00  0.00000000E+00
  0.00000000E+00  0.00000000E+00  0.00000000E+00
  0.00000000E+00  0.00000000E+00  0.00000000E+00
  0.00000000E+00  0.00000000E+00  0.00000000E+00
  0.00000000E+00  0.00000000E+00  0.00000000E+00
  0.00000000E+00  0.00000000E+00  0.00000000E+00
  0.00000000E+00  0.00000000E+00  0.00000000E+00
  0.00000000E+00  0.00000000E+00  0.00000000E+00
  0.00000000E+00  0.00000000E+00  0.00000000E+00
  0.00000000E+00  0.00000000E+00  0.00000000E+00
  0.00000000E+00  0.00000000E+00  0.00000000E+00
  0.00000000E+00  0.00000000E+00  0.00000000E+00
  0.00000000E+00  0.00000000E+00  0.00000000E+00
  0.00000000E+00  0.00000000E+00  0.00000000E+00
