Primitive Cell                          
   1.00000000000000     
    22.5901734189671188    0.0201532936332198    0.0000000000000000
   -11.2776706193309817   19.5277530966677411    0.0000000000000000
     0.0000000000000000    0.0000000000000000   20.0000000000000000
   N    C    H    O 
     6    36    24     6
Direct
  0.4316963110492296  0.5722947283210615  0.5144220083055515
  0.1385084331852227  0.5586189724601809  0.5134974657247469
  0.4180337084270818  0.8518524045468823  0.5142001769528761
  0.5613406065358006  0.4169098776804816  0.4806345623373289
  0.8539030626491240  0.4298922393669784  0.4802023195022898
  0.5741909041334594  0.1369122856501761  0.4804301602158532
  0.7328244044270491  0.3473921424450737  0.4698473017868210
  0.6823878395186966  0.2780763286798589  0.4695528747746707
  0.6130536088511320  0.2582482751979640  0.4695336549921052
  0.5943198500124325  0.3088280854379306  0.4691059670645714
  0.7130030053220224  0.3970256195225232  0.4694716649693973
  0.8056455811506211  0.3622437941365249  0.4722103221266423
  0.5550614249726351  0.1853107883386187  0.4714821882860321
  0.2596866262579240  0.6412906683000372  0.5237433585200719
  0.3100517394618620  0.7106317087820599  0.5246224104468098
  0.3794177014902402  0.7306032729796073  0.5253346406709269
  0.3983223629373640  0.6801443263347693  0.5258937362181655
  0.2796871945018538  0.5917811346369035  0.5241707555032491
  0.1868205696852812  0.6263549908861989  0.5208065088748413
  0.4372653746880601  0.8036347137971021  0.5240261970419837
  0.5330248847755144  0.5654019316339003  0.4961934382910016
  0.5676984010915120  0.5296030070539430  0.4870912109030243
  0.4620394320347216  0.5314958693715326  0.5065649539862136
  0.0299150777249082  0.4571644585567896  0.4974301491796354
  0.9595388259939952  0.4227122038453501  0.4885225523400365
  0.0675012111805771  0.5285276457946182  0.5057609918288577
  0.4253921028453576  0.9604506871392786  0.4957348147409988
  0.4613780276418566  0.0309430506720929  0.4866361268856636
  0.4589711023996159  0.9229926395732306  0.5064286747246172
  0.6438026890943007  0.3782729483465559  0.4694808640122616
  0.6287949772692798  0.4362892233258009  0.4714594826060647
  0.3489377920717374  0.6106676069339585  0.5248692192612836
  0.3641176198160991  0.5527696198151730  0.5228922159691152
  0.5309872987890145  0.4576889615445268  0.4884468040951901
  0.4599999839144573  0.4237673614286166  0.4987982172673071
  0.4253255783322487  0.4595647863145089  0.5079068742391826
  0.9249203868031088  0.4600132336030001  0.4880108884945571
  0.9625053992783634  0.5313790102721327  0.4964223750535552
  0.0328926892133623  0.5658369881855663  0.5053056997978800
  0.5331715513012298  0.0657914674217821  0.4882934309443172
  0.5667447544495801  0.0283222295505468  0.4989610831758142
  0.5307635862552758  0.9578412761293507  0.5080740215527584
  0.5394182385792732  0.2899438340304386  0.4681801438462898
  0.7490235206698515  0.4520323108462705  0.4689839724762805
  0.7013350954339614  0.2420019401318640  0.4691115393084999
  0.4532434372693999  0.6991407599433828  0.5274507130861608
  0.2437771800452850  0.5367475530659291  0.5241099952909423
  0.2910559454243327  0.7466594924002550  0.5250053249333604
  0.6225731379555697  0.5563411894154200  0.4790596790118826
  0.5619889763224322  0.6213180270496750  0.4951957337466411
  0.4646051114436318  0.6233341160587429  0.5104194951677457
  0.9310576280244263  0.3675400711744601  0.4820428426123939
  0.0563963543309640  0.4277429730946025  0.4978642262180628
  0.1561800769516779  0.5252027658389409  0.5113341957059987
  0.4348412769533923  0.0593407485511577  0.4784373041501055
  0.3695797560153196  0.9337929867943657  0.4945026294041668
  0.3671716603416399  0.8338685798764587  0.5091499470401075
  0.4310448844457042  0.3678431711723036  0.4997807652754531
  0.3704390144726517  0.4327802305160517  0.5158950344589570
  0.5284446414441177  0.3658846407601217  0.4848637140976564
  0.9360766918570604  0.5608576951436319  0.4960348126507199
  0.0614072375633015  0.6210107778688112  0.5117508846576726
  0.8362085235355323  0.4632477304415303  0.4830775121040531
  0.6225540513842489  0.0549920628149465  0.5002177668346022
  0.5572837073269952  0.9294384832482407  0.5163306291092837
  0.6250968752924422  0.1546806115082831  0.4845608356636930
  0.6752496849859000  0.4965272124402631  0.4663839165266523
  0.8191808631897288  0.3154813841791295  0.4683521569350901
  0.4949574088476965  0.1718274634699455  0.4665406222232420
  0.3176727105939747  0.4924612114184939  0.5273471650609522
  0.1732507926536542  0.6731382506831309  0.5237365025653773
  0.4973338351126273  0.8173176620500016  0.5301339617736929
 
  0.00000000E+00  0.00000000E+00  0.00000000E+00
  0.00000000E+00  0.00000000E+00  0.00000000E+00
  0.00000000E+00  0.00000000E+00  0.00000000E+00
  0.00000000E+00  0.00000000E+00  0.00000000E+00
  0.00000000E+00  0.00000000E+00  0.00000000E+00
  0.00000000E+00  0.00000000E+00  0.00000000E+00
  0.00000000E+00  0.00000000E+00  0.00000000E+00
  0.00000000E+00  0.00000000E+00  0.00000000E+00
  0.00000000E+00  0.00000000E+00  0.00000000E+00
  0.00000000E+00  0.00000000E+00  0.00000000E+00
  0.00000000E+00  0.00000000E+00  0.00000000E+00
  0.00000000E+00  0.00000000E+00  0.00000000E+00
  0.00000000E+00  0.00000000E+00  0.00000000E+00
  0.00000000E+00  0.00000000E+00  0.00000000E+00
  0.00000000E+00  0.00000000E+00  0.00000000E+00
  0.00000000E+00  0.00000000E+00  0.00000000E+00
  0.00000000E+00  0.00000000E+00  0.00000000E+00
  0.00000000E+00  0.00000000E+00  0.00000000E+00
  0.00000000E+00  0.00000000E+00  0.00000000E+00
  0.00000000E+00  0.00000000E+00  0.00000000E+00
  0.00000000E+00  0.00000000E+00  0.00000000E+00
  0.00000000E+00  0.00000000E+00  0.00000000E+00
  0.00000000E+00  0.00000000E+00  0.00000000E+00
  0.00000000E+00  0.00000000E+00  0.00000000E+00
  0.00000000E+00  0.00000000E+00  0.00000000E+00
  0.00000000E+00  0.00000000E+00  0.00000000E+00
  0.00000000E+00  0.00000000E+00  0.00000000E+00
  0.00000000E+00  0.00000000E+00  0.00000000E+00
  0.00000000E+00  0.00000000E+00  0.00000000E+00
  0.00000000E+00  0.00000000E+00  0.00000000E+00
  0.00000000E+00  0.00000000E+00  0.00000000E+00
  0.00000000E+00  0.00000000E+00  0.00000000E+00
  0.00000000E+00  0.00000000E+00  0.00000000E+00
  0.00000000E+00  0.00000000E+00  0.00000000E+00
  0.00000000E+00  0.00000000E+00  0.00000000E+00
  0.00000000E+00  0.00000000E+00  0.00000000E+00
  0.00000000E+00  0.00000000E+00  0.00000000E+00
  0.00000000E+00  0.00000000E+00  0.00000000E+00
  0.00000000E+00  0.00000000E+00  0.00000000E+00
  0.00000000E+00  0.00000000E+00  0.00000000E+00
  0.00000000E+00  0.00000000E+00  0.00000000E+00
  0.00000000E+00  0.00000000E+00  0.00000000E+00
  0.00000000E+00  0.00000000E+00  0.00000000E+00
  0.00000000E+00  0.00000000E+00  0.00000000E+00
  0.00000000E+00  0.00000000E+00  0.00000000E+00
  0.00000000E+00  0.00000000E+00  0.00000000E+00
  0.00000000E+00  0.00000000E+00  0.00000000E+00
  0.00000000E+00  0.00000000E+00  0.00000000E+00
  0.00000000E+00  0.00000000E+00  0.00000000E+00
  0.00000000E+00  0.00000000E+00  0.00000000E+00
  0.00000000E+00  0.00000000E+00  0.00000000E+00
  0.00000000E+00  0.00000000E+00  0.00000000E+00
  0.00000000E+00  0.00000000E+00  0.00000000E+00
  0.00000000E+00  0.00000000E+00  0.00000000E+00
  0.00000000E+00  0.00000000E+00  0.00000000E+00
  0.00000000E+00  0.00000000E+00  0.00000000E+00
  0.00000000E+00  0.00000000E+00  0.00000000E+00
  0.00000000E+00  0.00000000E+00  0.00000000E+00
  0.00000000E+00  0.00000000E+00  0.00000000E+00
  0.00000000E+00  0.00000000E+00  0.00000000E+00
  0.00000000E+00  0.00000000E+00  0.00000000E+00
  0.00000000E+00  0.00000000E+00  0.00000000E+00
  0.00000000E+00  0.00000000E+00  0.00000000E+00
  0.00000000E+00  0.00000000E+00  0.00000000E+00
  0.00000000E+00  0.00000000E+00  0.00000000E+00
  0.00000000E+00  0.00000000E+00  0.00000000E+00
  0.00000000E+00  0.00000000E+00  0.00000000E+00
  0.00000000E+00  0.00000000E+00  0.00000000E+00
  0.00000000E+00  0.00000000E+00  0.00000000E+00
  0.00000000E+00  0.00000000E+00  0.00000000E+00
  0.00000000E+00  0.00000000E+00  0.00000000E+00
  0.00000000E+00  0.00000000E+00  0.00000000E+00
