K-Path Generated by VASPKIT.
   20
Line-Mode
Reciprocal
   0.0000000000   0.0000000000   0.0000000000     \Gamma          
   0.5000000000   0.0000000000   0.0000000000     X              
 
   0.5000000000   0.0000000000   0.0000000000     X              
   0.5011640025   0.4967112550   0.0000000000     H_1            
 
   0.5011640025   0.4967112550   0.0000000000     H_1            
   0.5000000000   0.5000000000   0.0000000000     C              
 
   0.5000000000   0.5000000000   0.0000000000     C              
   0.4988359975   0.5032887450   0.0000000000     H              
 
   0.4988359975   0.5032887450   0.0000000000     H              
   0.0000000000   0.5000000000   0.0000000000     Y              
 
   0.0000000000   0.5000000000   0.0000000000     Y              
   0.0000000000   0.0000000000   0.0000000000     \Gamma          
 
