Primitive Cell                          
   1.00000000000000     
    29.4913113098522075    0.0000000000000000    0.0000000000000000
   -14.7456556549261144   25.5402247852473288    0.0000000000000000
     0.0000000000000000    0.0000000000000000   20.0000000000000000
   C    N    H 
    66     6    48
Direct
  0.0274366206491337  0.5137183103245633  0.5635385330490266
  0.0273213658416225  0.5136606829208006  0.4410610868645506
  0.3590759328776940  0.7181518657553951  0.5026897507169252
  0.3590759328776940  0.6409240671223060  0.5026897507169252
  0.2818481342445978  0.6409240671223060  0.5026897507169252
  0.3880508191917897  0.6119491808082103  0.5029553204887662
  0.4430649589065965  0.6389975083156685  0.5030352179045039
  0.4702127559011515  0.6116320514039586  0.5029493210828022
  0.4433596064957541  0.5566403935042459  0.5026726473759808
  0.3883679485960414  0.5297872440988485  0.5029493210828022
  0.3610024916843315  0.5569350410934106  0.5030352179045039
  0.3880508191917897  0.7761016383835724  0.5029553204887662
  0.4430649589065965  0.8040674505909209  0.5030352179045039
  0.4702127559011515  0.8585807044972000  0.5029493210828022
  0.4433596064957541  0.8867192129915011  0.5026726473759808
  0.3883679485960414  0.8585807044972000  0.5029493210828022
  0.3610024916843315  0.8040674505909209  0.5030352179045039
  0.2238983616164276  0.6119491808082103  0.5029553204887662
  0.1959325494090791  0.6389975083156685  0.5030352179045039
  0.1414192955028000  0.6116320514039586  0.5029493210828022
  0.1132807870084989  0.5566403935042459  0.5026726473759808
  0.1414192955028000  0.5297872440988485  0.5029493210828022
  0.1959325494090791  0.5569350410934106  0.5030352179045039
  0.6409369933856084  0.2818739867712239  0.5021369272900102
  0.6409369933856084  0.3590630066143916  0.5021369272900102
  0.7181260132287761  0.3590630066143916  0.5021369272900102
  0.6119829933781702  0.3880170066218298  0.5022699745215036
  0.5569891871239250  0.3609174032952538  0.5023819718285623
  0.5298038532711971  0.3882417176794348  0.5025745396755070
  0.5567799273347447  0.4432200726652553  0.5026309439512957
  0.6117582823205652  0.4701961467288029  0.5025745396755070
  0.6390825967047462  0.4430108128760750  0.5023819718285623
  0.6119829933781702  0.2239659867563333  0.5022699745215036
  0.5569891871239250  0.1960717838286712  0.5023819718285623
  0.5298038532711971  0.1415621355917693  0.5025745396755070
  0.5567799273347447  0.1135598546694752  0.5026309439512957
  0.6117582823205652  0.1415621355917693  0.5025745396755070
  0.6390825967047462  0.1960717838286712  0.5023819718285623
  0.7760340132436667  0.3880170066218298  0.5022699745215036
  0.8039282161713288  0.3609174032952538  0.5023819718285623
  0.8584378644082307  0.3882417176794348  0.5025745396755070
  0.8864401453305248  0.4432200726652553  0.5026309439512957
  0.8584378644082307  0.4701961467288029  0.5025745396755070
  0.8039282161713288  0.4430108128760750  0.5023819718285623
  0.5136476192162078  0.4863523807837922  0.5627504081750416
  0.4862816896754367  0.5137183103245633  0.5635385330490266
  0.4725689447172030  0.5274310552827970  0.5021072788046723
  0.4717608566530274  0.5282391433469726  0.6291771985088346
  0.5136476192162078  0.0272952384324157  0.5627504081750416
  0.4862816896754367  0.9725633793508663  0.5635385330490266
  0.4725689447172030  0.9451378894344131  0.5021072788046723
  0.4717608566530274  0.9435217133060618  0.6291771985088346
  0.9727047615675843  0.4863523807837922  0.5627504081750416
  0.0548621105655869  0.5274310552827970  0.5021072788046723
  0.0564782866939382  0.5282391433469726  0.6291771985088346
  0.5276478747356421  0.4723521252643579  0.5025175617262860
  0.4863393170791994  0.5136606829208006  0.4410610868645506
  0.5137978384663739  0.4862021615336261  0.4423384181528220
  0.4725300972024655  0.5274699027975345  0.3743290150942968
  0.5276478747356421  0.0552957494712913  0.5025175617262860
  0.4863393170791994  0.9726786341583775  0.4410610868645506
  0.5137978384663739  0.0275956769327479  0.4423384181528220
  0.4725300972024655  0.9450601944049311  0.3743290150942968
  0.9447042505287087  0.4723521252643579  0.5025175617262860
  0.9724043230672521  0.4862021615336261  0.4423384181528220
  0.0549398055950689  0.5274699027975345  0.3743290150942968
  0.3871447198137972  0.6935723599068950  0.5026302388053381
  0.3064276400931050  0.6128552801862028  0.5026302388053381
  0.3064276400931050  0.6935723599068950  0.5026302388053381
  0.6128737733039173  0.3064368866519587  0.5021146395688589
  0.6935631133480342  0.3871262266960827  0.5021146395688589
  0.6935631133480342  0.3064368866519587  0.5021146395688589
  0.0290920532078474  0.5145460266039308  0.6714560447118600
  0.0438210722942856  0.5518965669821370  0.3448331054548746
  0.0438210722942856  0.4919245053121557  0.3448331054548746
  0.5129466906261584  0.8800400049475101  0.5027193652776631
  0.4639428996978552  0.7822944374855467  0.5029885015790683
  0.3670933143213446  0.8800400049475101  0.5027193652776631
  0.3183515377876915  0.7822944374855467  0.5029885015790683
  0.2177055625144533  0.6816484622123085  0.5029885015790683
  0.1199599950524899  0.6329066856786554  0.5027193652776631
  0.2177055625144533  0.5360571003021448  0.5029885015790683
  0.1199599950524899  0.4870533093738416  0.5027193652776631
  0.3183515377876915  0.5360571003021448  0.5029885015790683
  0.3670933143213446  0.4870533093738416  0.5027193652776631
  0.5129466906261584  0.6329066856786554  0.5027193652776631
  0.4639428996978552  0.6816484622123085  0.5029885015790683
  0.4870705157627100  0.1200743332125924  0.5026476111816649
  0.5361791695799667  0.2179125566114877  0.5022761448498017
  0.6330038174498966  0.1200743332125924  0.5026476111816649
  0.6817333870315281  0.2179125566114877  0.5022761448498017
  0.7820874433885123  0.3182666129684790  0.5022761448498017
  0.8799256667874005  0.3669961825501034  0.5026476111816649
  0.7820874433885123  0.4638208304200333  0.5022761448498017
  0.8799256667874005  0.5129294842372900  0.5026476111816649
  0.6817333870315281  0.4638208304200333  0.5022761448498017
  0.6330038174498966  0.5129294842372900  0.5026476111816649
  0.4870705157627100  0.3669961825501034  0.5026476111816649
  0.5361791695799667  0.3182666129684790  0.5022761448498017
  0.5243525054672347  0.4756474945327653  0.6100101104514550
  0.4854539733960692  0.5145460266039308  0.6714560447118600
  0.4291169483134212  0.5111658635613239  0.6338201129724084
  0.4888341364386761  0.5708830516865788  0.6338201129724084
  0.5243525054672347  0.0487050109344551  0.6100101104514550
  0.4854539733960692  0.9709079467921526  0.6714560447118600
  0.4888341364386761  0.9179510847521115  0.6338201129724084
  0.4291169483134212  0.9179510847521115  0.6338201129724084
  0.9512949890655449  0.4756474945327653  0.6100101104514550
  0.0820489152478885  0.5708830516865788  0.6338201129724084
  0.0820489152478885  0.5111658635613239  0.6338201129724084
  0.5246127050862981  0.4753872949137019  0.3952061594047009
  0.4511758297776112  0.5488241702223888  0.3795635293040718
  0.4481034330178701  0.4919245053121557  0.3448331054548746
  0.5080754946878443  0.5518965669821370  0.3448331054548746
  0.5246127050862981  0.0492254101725962  0.3952061594047009
  0.4511758297776112  0.9023516595552294  0.3795635293040718
  0.5080754946878443  0.9561789277057144  0.3448331054548746
  0.4481034330178701  0.9561789277057144  0.3448331054548746
  0.9507745898274038  0.4753872949137019  0.3952061594047009
  0.0976483404447706  0.5488241702223888  0.3795635293040718
 
  0.00000000E+00  0.00000000E+00  0.00000000E+00
  0.00000000E+00  0.00000000E+00  0.00000000E+00
  0.00000000E+00  0.00000000E+00  0.00000000E+00
  0.00000000E+00  0.00000000E+00  0.00000000E+00
  0.00000000E+00  0.00000000E+00  0.00000000E+00
  0.00000000E+00  0.00000000E+00  0.00000000E+00
  0.00000000E+00  0.00000000E+00  0.00000000E+00
  0.00000000E+00  0.00000000E+00  0.00000000E+00
  0.00000000E+00  0.00000000E+00  0.00000000E+00
  0.00000000E+00  0.00000000E+00  0.00000000E+00
  0.00000000E+00  0.00000000E+00  0.00000000E+00
  0.00000000E+00  0.00000000E+00  0.00000000E+00
  0.00000000E+00  0.00000000E+00  0.00000000E+00
  0.00000000E+00  0.00000000E+00  0.00000000E+00
  0.00000000E+00  0.00000000E+00  0.00000000E+00
  0.00000000E+00  0.00000000E+00  0.00000000E+00
  0.00000000E+00  0.00000000E+00  0.00000000E+00
  0.00000000E+00  0.00000000E+00  0.00000000E+00
  0.00000000E+00  0.00000000E+00  0.00000000E+00
  0.00000000E+00  0.00000000E+00  0.00000000E+00
  0.00000000E+00  0.00000000E+00  0.00000000E+00
  0.00000000E+00  0.00000000E+00  0.00000000E+00
  0.00000000E+00  0.00000000E+00  0.00000000E+00
  0.00000000E+00  0.00000000E+00  0.00000000E+00
  0.00000000E+00  0.00000000E+00  0.00000000E+00
  0.00000000E+00  0.00000000E+00  0.00000000E+00
  0.00000000E+00  0.00000000E+00  0.00000000E+00
  0.00000000E+00  0.00000000E+00  0.00000000E+00
  0.00000000E+00  0.00000000E+00  0.00000000E+00
  0.00000000E+00  0.00000000E+00  0.00000000E+00
  0.00000000E+00  0.00000000E+00  0.00000000E+00
  0.00000000E+00  0.00000000E+00  0.00000000E+00
  0.00000000E+00  0.00000000E+00  0.00000000E+00
  0.00000000E+00  0.00000000E+00  0.00000000E+00
  0.00000000E+00  0.00000000E+00  0.00000000E+00
  0.00000000E+00  0.00000000E+00  0.00000000E+00
  0.00000000E+00  0.00000000E+00  0.00000000E+00
  0.00000000E+00  0.00000000E+00  0.00000000E+00
  0.00000000E+00  0.00000000E+00  0.00000000E+00
  0.00000000E+00  0.00000000E+00  0.00000000E+00
  0.00000000E+00  0.00000000E+00  0.00000000E+00
  0.00000000E+00  0.00000000E+00  0.00000000E+00
  0.00000000E+00  0.00000000E+00  0.00000000E+00
  0.00000000E+00  0.00000000E+00  0.00000000E+00
  0.00000000E+00  0.00000000E+00  0.00000000E+00
  0.00000000E+00  0.00000000E+00  0.00000000E+00
  0.00000000E+00  0.00000000E+00  0.00000000E+00
  0.00000000E+00  0.00000000E+00  0.00000000E+00
  0.00000000E+00  0.00000000E+00  0.00000000E+00
  0.00000000E+00  0.00000000E+00  0.00000000E+00
  0.00000000E+00  0.00000000E+00  0.00000000E+00
  0.00000000E+00  0.00000000E+00  0.00000000E+00
  0.00000000E+00  0.00000000E+00  0.00000000E+00
  0.00000000E+00  0.00000000E+00  0.00000000E+00
  0.00000000E+00  0.00000000E+00  0.00000000E+00
  0.00000000E+00  0.00000000E+00  0.00000000E+00
  0.00000000E+00  0.00000000E+00  0.00000000E+00
  0.00000000E+00  0.00000000E+00  0.00000000E+00
  0.00000000E+00  0.00000000E+00  0.00000000E+00
  0.00000000E+00  0.00000000E+00  0.00000000E+00
  0.00000000E+00  0.00000000E+00  0.00000000E+00
  0.00000000E+00  0.00000000E+00  0.00000000E+00
  0.00000000E+00  0.00000000E+00  0.00000000E+00
  0.00000000E+00  0.00000000E+00  0.00000000E+00
  0.00000000E+00  0.00000000E+00  0.00000000E+00
  0.00000000E+00  0.00000000E+00  0.00000000E+00
  0.00000000E+00  0.00000000E+00  0.00000000E+00
  0.00000000E+00  0.00000000E+00  0.00000000E+00
  0.00000000E+00  0.00000000E+00  0.00000000E+00
  0.00000000E+00  0.00000000E+00  0.00000000E+00
  0.00000000E+00  0.00000000E+00  0.00000000E+00
  0.00000000E+00  0.00000000E+00  0.00000000E+00
  0.00000000E+00  0.00000000E+00  0.00000000E+00
  0.00000000E+00  0.00000000E+00  0.00000000E+00
  0.00000000E+00  0.00000000E+00  0.00000000E+00
  0.00000000E+00  0.00000000E+00  0.00000000E+00
  0.00000000E+00  0.00000000E+00  0.00000000E+00
  0.00000000E+00  0.00000000E+00  0.00000000E+00
  0.00000000E+00  0.00000000E+00  0.00000000E+00
  0.00000000E+00  0.00000000E+00  0.00000000E+00
  0.00000000E+00  0.00000000E+00  0.00000000E+00
  0.00000000E+00  0.00000000E+00  0.00000000E+00
  0.00000000E+00  0.00000000E+00  0.00000000E+00
  0.00000000E+00  0.00000000E+00  0.00000000E+00
  0.00000000E+00  0.00000000E+00  0.00000000E+00
  0.00000000E+00  0.00000000E+00  0.00000000E+00
  0.00000000E+00  0.00000000E+00  0.00000000E+00
  0.00000000E+00  0.00000000E+00  0.00000000E+00
  0.00000000E+00  0.00000000E+00  0.00000000E+00
  0.00000000E+00  0.00000000E+00  0.00000000E+00
  0.00000000E+00  0.00000000E+00  0.00000000E+00
  0.00000000E+00  0.00000000E+00  0.00000000E+00
  0.00000000E+00  0.00000000E+00  0.00000000E+00
  0.00000000E+00  0.00000000E+00  0.00000000E+00
  0.00000000E+00  0.00000000E+00  0.00000000E+00
  0.00000000E+00  0.00000000E+00  0.00000000E+00
  0.00000000E+00  0.00000000E+00  0.00000000E+00
  0.00000000E+00  0.00000000E+00  0.00000000E+00
  0.00000000E+00  0.00000000E+00  0.00000000E+00
  0.00000000E+00  0.00000000E+00  0.00000000E+00
  0.00000000E+00  0.00000000E+00  0.00000000E+00
  0.00000000E+00  0.00000000E+00  0.00000000E+00
  0.00000000E+00  0.00000000E+00  0.00000000E+00
  0.00000000E+00  0.00000000E+00  0.00000000E+00
  0.00000000E+00  0.00000000E+00  0.00000000E+00
  0.00000000E+00  0.00000000E+00  0.00000000E+00
  0.00000000E+00  0.00000000E+00  0.00000000E+00
  0.00000000E+00  0.00000000E+00  0.00000000E+00
  0.00000000E+00  0.00000000E+00  0.00000000E+00
  0.00000000E+00  0.00000000E+00  0.00000000E+00
  0.00000000E+00  0.00000000E+00  0.00000000E+00
  0.00000000E+00  0.00000000E+00  0.00000000E+00
  0.00000000E+00  0.00000000E+00  0.00000000E+00
  0.00000000E+00  0.00000000E+00  0.00000000E+00
  0.00000000E+00  0.00000000E+00  0.00000000E+00
  0.00000000E+00  0.00000000E+00  0.00000000E+00
  0.00000000E+00  0.00000000E+00  0.00000000E+00
  0.00000000E+00  0.00000000E+00  0.00000000E+00
  0.00000000E+00  0.00000000E+00  0.00000000E+00
  0.00000000E+00  0.00000000E+00  0.00000000E+00
