Primitive Cell                          
   1.00000000000000     
    22.3205519522471043   -0.0248623072311849    0.0000000000000000
   -11.1818654345227273   19.3374263152934631    0.0000000000000000
    -0.0000000000000102    0.0000000000000000   20.0000000000000000
   N    O    C    H 
    12     6    39    30
Direct
  0.4403082860274168  0.9608310599315431  0.4488211937469941
  0.5648075840474007  0.1429564856199690  0.4822228555664410
  0.0375546108732578  0.4841501297449753  0.4454684594100868
  0.8559619247079624  0.4280033514239747  0.4800268352622368
  0.5139019908256728  0.5586306201062285  0.4476367620041728
  0.5705897352850755  0.4336493983606076  0.4809988237005811
  0.5294034346704848  0.9663224388451042  0.5197171880219997
  0.4358759951137046  0.8609724333640756  0.4918816177554959
  0.0335879974930862  0.5688357732254943  0.5159189737738359
  0.1382601422685781  0.5796305736270284  0.4881798877756083
  0.4307151049829301  0.4707246260753237  0.5198886031224532
  0.4192575698240120  0.5641112338989771  0.4915644071950780
  0.6764763004476748  0.1779942771190051  0.5154450614517643
  0.8218759380780227  0.5052964809483385  0.5130259559312904
  0.4944816443841376  0.3230881409069326  0.5177544151446511
  0.3228265101079302  0.8274030595511448  0.4632269195801300
  0.1721435135032579  0.5009621827118664  0.4577035139544705
  0.4984556053603768  0.6764627551020368  0.4603316099521706
  0.7340289964197950  0.3869829747265996  0.4969106613237102
  0.6820371811152199  0.4046787906447875  0.4975591061720124
  0.6121616956543861  0.3533522561410720  0.4978872930406411
  0.5943334224086740  0.2836117653723278  0.4985311797206720
  0.7154103936278986  0.3171971249161487  0.4976103810979779
  0.8075874169619652  0.4459237638005007  0.4978547827493927
  0.5532837449694910  0.3678613807689644  0.5002624729971643
  0.2606217179504142  0.6176723533084711  0.4785345250063955
  0.3114466215728982  0.5983205045005349  0.4785059600111055
  0.3816439217445051  0.6484170320669165  0.4797406922291216
  0.4011786749495272  0.7186479653553519  0.4804379742681277
  0.2808265104293213  0.6878187793295822  0.4794172583709368
  0.1865736219906751  0.5599054501304721  0.4734738003147569
  0.4392885117510446  0.6320986990528539  0.4759731238279201
  0.4724078305911661  0.0299668692688613  0.4457183434864049
  0.5345489305718232  0.0707527956083709  0.4817852244739029
  0.4391148449903781  0.0593097533362297  0.4033312865159999
  0.3601203658269938  0.0238153432288115  0.4033977258004668
  0.3962481884496682  0.0174660162583535  0.3434412427556310
  0.9682873612911891  0.4475645910104902  0.4428059199122885
  0.9282521959707850  0.4696425342939818  0.4789653783389340
  0.9379032193317656  0.3845374166843598  0.4008267381754465
  0.9723820581859428  0.3402414140153951  0.4009495757187835
  0.9789935617139278  0.3825493769369999  0.3407829893146683
  0.5506347797463107  0.5262834108789036  0.4444905459022479
  0.5291234086577390  0.4643735163287204  0.4809201750992074
  0.6131137511102907  0.5591602145565702  0.4016931972607907
  0.6565892877406583  0.6381126975085252  0.4005765890089208
  0.6135893858318298  0.6009649675678048  0.3411690508121623
  0.6455984973215934  0.2651411015222322  0.4978642534401558
  0.6311512294398227  0.1917823807211789  0.4997952242618453
  0.3511522162432499  0.7387024278288905  0.4805806674937187
  0.3675170334616098  0.8127359697437342  0.4775095252716568
  0.5619591997247824  0.0353234556541935  0.5168333061116925
  0.4689323143006519  0.9328543860479925  0.4865289585792425
  0.9645098957860938  0.5327763805691035  0.5135486909649529
  0.0663095238085845  0.5410913039828813  0.4828074862984622
  0.4666819785434626  0.4377514677525696  0.5167519057977330
  0.4576678880287517  0.5307261607463474  0.4860081324493919
  0.5391348610375388  0.2457617192388355  0.5021456470146930
  0.7532168363002256  0.2998608220330041  0.5005592539571850
  0.6994625737236717  0.4598666539253458  0.5004153147023374
  0.4566275448209041  0.7556721236337580  0.4780604757519882
  0.2439184816963405  0.7062607751502270  0.4763797734204687
  0.2931597536425627  0.5430466620362822  0.4746392883321917
  0.4667952301843883  0.1152273205577643  0.3961746689055516
  0.3998462456153717  0.0466165648375139  0.2984806577820152
  0.3937799403046256  0.9679785084150581  0.3359105441681010
  0.3339022307329955  0.9784460410018809  0.4355518098327096
  0.3376466820894706  0.0572342261537742  0.4012270407503422
  0.5339092688579825  0.1611987968075255  0.4660429864916864
  0.8818875937006894  0.3567705459593071  0.3940099446913479
  0.9492776593402183  0.3568285324430178  0.2961009287649787
  0.0288219069543487  0.4292338323809091  0.3327919753118778
  0.0179358056579559  0.3591644103435030  0.4328325034908573
  0.9382505591270345  0.2843442678865102  0.3991525934931346
  0.8371672798641683  0.3786360488732186  0.4641993503450408
  0.6415208063349667  0.5316552872187827  0.3949259286241542
  0.6388636398674947  0.5967402635770611  0.2962793957611041
  0.5663822381406334  0.6031325948333759  0.3336036278466352
  0.6376190231002710  0.6647327176758537  0.4323108060774246
  0.7125888851132416  0.6607254887880316  0.3980387568665478
  0.6194530695207874  0.4638628197899237  0.4635718780916847
  0.6112749554881489  0.0639449977700011  0.5428530990131151
  0.4657276236000314  0.8443951971638270  0.5144134097522439
  0.9365180591717106  0.5540476302825041  0.5396082612060766
  0.1549078123189886  0.6258889246880770  0.5111694962049214
  0.4459585431008506  0.3887459134060975  0.5432769281243139
  0.3730706243765312  0.5347635004002669  0.5148838501611408
 
  0.00000000E+00  0.00000000E+00  0.00000000E+00
  0.00000000E+00  0.00000000E+00  0.00000000E+00
  0.00000000E+00  0.00000000E+00  0.00000000E+00
  0.00000000E+00  0.00000000E+00  0.00000000E+00
  0.00000000E+00  0.00000000E+00  0.00000000E+00
  0.00000000E+00  0.00000000E+00  0.00000000E+00
  0.00000000E+00  0.00000000E+00  0.00000000E+00
  0.00000000E+00  0.00000000E+00  0.00000000E+00
  0.00000000E+00  0.00000000E+00  0.00000000E+00
  0.00000000E+00  0.00000000E+00  0.00000000E+00
  0.00000000E+00  0.00000000E+00  0.00000000E+00
  0.00000000E+00  0.00000000E+00  0.00000000E+00
  0.00000000E+00  0.00000000E+00  0.00000000E+00
  0.00000000E+00  0.00000000E+00  0.00000000E+00
  0.00000000E+00  0.00000000E+00  0.00000000E+00
  0.00000000E+00  0.00000000E+00  0.00000000E+00
  0.00000000E+00  0.00000000E+00  0.00000000E+00
  0.00000000E+00  0.00000000E+00  0.00000000E+00
  0.00000000E+00  0.00000000E+00  0.00000000E+00
  0.00000000E+00  0.00000000E+00  0.00000000E+00
  0.00000000E+00  0.00000000E+00  0.00000000E+00
  0.00000000E+00  0.00000000E+00  0.00000000E+00
  0.00000000E+00  0.00000000E+00  0.00000000E+00
  0.00000000E+00  0.00000000E+00  0.00000000E+00
  0.00000000E+00  0.00000000E+00  0.00000000E+00
  0.00000000E+00  0.00000000E+00  0.00000000E+00
  0.00000000E+00  0.00000000E+00  0.00000000E+00
  0.00000000E+00  0.00000000E+00  0.00000000E+00
  0.00000000E+00  0.00000000E+00  0.00000000E+00
  0.00000000E+00  0.00000000E+00  0.00000000E+00
  0.00000000E+00  0.00000000E+00  0.00000000E+00
  0.00000000E+00  0.00000000E+00  0.00000000E+00
  0.00000000E+00  0.00000000E+00  0.00000000E+00
  0.00000000E+00  0.00000000E+00  0.00000000E+00
  0.00000000E+00  0.00000000E+00  0.00000000E+00
  0.00000000E+00  0.00000000E+00  0.00000000E+00
  0.00000000E+00  0.00000000E+00  0.00000000E+00
  0.00000000E+00  0.00000000E+00  0.00000000E+00
  0.00000000E+00  0.00000000E+00  0.00000000E+00
  0.00000000E+00  0.00000000E+00  0.00000000E+00
  0.00000000E+00  0.00000000E+00  0.00000000E+00
  0.00000000E+00  0.00000000E+00  0.00000000E+00
  0.00000000E+00  0.00000000E+00  0.00000000E+00
  0.00000000E+00  0.00000000E+00  0.00000000E+00
  0.00000000E+00  0.00000000E+00  0.00000000E+00
  0.00000000E+00  0.00000000E+00  0.00000000E+00
  0.00000000E+00  0.00000000E+00  0.00000000E+00
  0.00000000E+00  0.00000000E+00  0.00000000E+00
  0.00000000E+00  0.00000000E+00  0.00000000E+00
  0.00000000E+00  0.00000000E+00  0.00000000E+00
  0.00000000E+00  0.00000000E+00  0.00000000E+00
  0.00000000E+00  0.00000000E+00  0.00000000E+00
  0.00000000E+00  0.00000000E+00  0.00000000E+00
  0.00000000E+00  0.00000000E+00  0.00000000E+00
  0.00000000E+00  0.00000000E+00  0.00000000E+00
  0.00000000E+00  0.00000000E+00  0.00000000E+00
  0.00000000E+00  0.00000000E+00  0.00000000E+00
  0.00000000E+00  0.00000000E+00  0.00000000E+00
  0.00000000E+00  0.00000000E+00  0.00000000E+00
  0.00000000E+00  0.00000000E+00  0.00000000E+00
  0.00000000E+00  0.00000000E+00  0.00000000E+00
  0.00000000E+00  0.00000000E+00  0.00000000E+00
  0.00000000E+00  0.00000000E+00  0.00000000E+00
  0.00000000E+00  0.00000000E+00  0.00000000E+00
  0.00000000E+00  0.00000000E+00  0.00000000E+00
  0.00000000E+00  0.00000000E+00  0.00000000E+00
  0.00000000E+00  0.00000000E+00  0.00000000E+00
  0.00000000E+00  0.00000000E+00  0.00000000E+00
  0.00000000E+00  0.00000000E+00  0.00000000E+00
  0.00000000E+00  0.00000000E+00  0.00000000E+00
  0.00000000E+00  0.00000000E+00  0.00000000E+00
  0.00000000E+00  0.00000000E+00  0.00000000E+00
  0.00000000E+00  0.00000000E+00  0.00000000E+00
  0.00000000E+00  0.00000000E+00  0.00000000E+00
  0.00000000E+00  0.00000000E+00  0.00000000E+00
  0.00000000E+00  0.00000000E+00  0.00000000E+00
  0.00000000E+00  0.00000000E+00  0.00000000E+00
  0.00000000E+00  0.00000000E+00  0.00000000E+00
  0.00000000E+00  0.00000000E+00  0.00000000E+00
  0.00000000E+00  0.00000000E+00  0.00000000E+00
  0.00000000E+00  0.00000000E+00  0.00000000E+00
  0.00000000E+00  0.00000000E+00  0.00000000E+00
  0.00000000E+00  0.00000000E+00  0.00000000E+00
  0.00000000E+00  0.00000000E+00  0.00000000E+00
  0.00000000E+00  0.00000000E+00  0.00000000E+00
  0.00000000E+00  0.00000000E+00  0.00000000E+00
  0.00000000E+00  0.00000000E+00  0.00000000E+00
