Primitive Cell                          
   1.00000000000000     
    15.1414222237995340   -0.0955345941139424    0.0000000000000000
    -0.1747813102778469   25.5332613359173237    0.0000000000000000
     0.0000000000000000    0.0000000000000000   20.0000000000000000
   N    H    C    O 
    12    24    60    24
Direct
  0.1204235171605674  0.7663087631189995  0.3749621710939692
  0.6285785171219516  0.2614701583699457  0.3740499293289048
  0.7864300168928793  0.6787352949354428  0.3728864882484828
  0.6186743336930860  0.7252328720745922  0.3780988267879195
  0.9899810653683687  0.5477293702499892  0.3572075351857791
  0.4857059662168126  0.9369664857346791  0.3593268975178106
  0.2888647267343316  0.8146124647627531  0.3743995975368648
  0.2930266401524335  0.1829124126286104  0.3704722746847011
  0.1257885928073250  0.2303603932382003  0.3757760550362619
  0.4811648500911971  0.0484840661645407  0.3583472281713185
  0.9964853496665285  0.4361020240029703  0.3598216665088643
  0.7980229879368821  0.3091159960703393  0.3734794526179499
  0.2009930471261470  0.6837568938298659  0.5721571524791784
  0.7027034914526951  0.1857797784492874  0.5771195383624530
  0.9871003077773466  0.7601267383173393  0.4867162490913941
  0.1344508979125365  0.6169537908231746  0.4787845247595897
  0.4927743111733989  0.2602357154821462  0.4868718025258616
  0.6374060552832645  0.1160021526309905  0.4823899929696793
  0.8502582561832384  0.6111160698526064  0.4807100508343893
  0.6405067008128285  0.8707922989508177  0.4866535011392017
  0.4862507951115873  0.7276993769472284  0.4891923991962628
  0.3568107040787325  0.8768294277904900  0.4796002262076513
  0.8473887818874246  0.7551316003495216  0.5784846245295157
  0.7036075336518692  0.8005518046163260  0.5797525213064745
  0.0029338838062500  0.5442435947336648  0.5884926949098528
  0.5172602634579562  0.9462285194402966  0.5895815334996186
  0.3468098156971493  0.7290019077894314  0.5738104682241882
  0.3531242059021835  0.1121891516941531  0.4798447934202059
  0.1430298571345716  0.3721011915851449  0.4866079294895300
  0.9925921705399432  0.2276189796457047  0.4905650982168837
  0.8590175077750857  0.3754483892302147  0.4818320562990124
  0.3503922893822917  0.2534256099058467  0.5801008999519084
  0.2067139769172712  0.2990485627604897  0.5819918601211498
  0.5154305009623954  0.0435602332556257  0.5883474632203232
  0.0068234730073016  0.4469554696599047  0.5908870108305067
  0.8487549695989500  0.2309406391364561  0.5788551987255630
  0.1555865740493942  0.7212517795370914  0.4825781690234976
  0.1804285486625545  0.7568151080879488  0.4322418738112717
  0.2185098045142482  0.7112650394600024  0.5324617044570630
  0.6603494938490755  0.2202793955492552  0.4847190252762061
  0.6869844357231756  0.2538516291756920  0.4327176726901385
  0.7216008965033893  0.2118854032077166  0.5362451072582317
  0.0701154618641979  0.6920320620171836  0.4829433707797861
  0.5744299898721366  0.1915151032652105  0.4849227391998383
  0.0713861884346443  0.6370535082053905  0.4814227338907457
  0.9888891784628484  0.7175293009109183  0.4856554741053714
  0.5747006795464102  0.1365410111515004  0.4839538464289106
  0.4937047872146820  0.2176107166606585  0.4863211704600729
  0.9925438606011170  0.6079342851190788  0.4814337131279203
  0.9117261738419558  0.6338413461678982  0.4822214426578810
  0.9096941708089261  0.6886216874830708  0.4843927805260790
  0.4122062450799717  0.7991892485064085  0.4848660725597327
  0.4171382195152304  0.8540153448036634  0.4827253626927543
  0.4990689982607321  0.8798262502758405  0.4849445165831057
  0.5765274124333359  0.8506998948878035  0.4880289207869950
  0.5724585696084716  0.7957985227061926  0.4888929200644796
  0.4899040033592783  0.7703086979390932  0.4887636203663277
  0.6564012719800942  0.7663221404501925  0.4881018107854231
  0.8240277320024205  0.7161131911886969  0.4847417621627343
  0.7622667216566370  0.7092862144337886  0.4331588479430266
  0.6795466941398658  0.7326643348414237  0.4356113868236520
  0.5024227423108201  0.9381070824947244  0.4831879459547821
  0.9949485247291605  0.5496151675915968  0.4814226774669947
  0.9934386669362567  0.5202145041314026  0.4223364026020704
  0.4930757819999698  0.9659643918577956  0.4233526434799657
  0.3254468773415482  0.7717358601441546  0.4827479164878028
  0.2639918990702199  0.7805495553187995  0.4316516874379630
  0.7197099830021685  0.7744295599414457  0.5384949465868658
  0.8008348862952630  0.7494197180613611  0.5374357664248279
  0.5105218661573829  0.9671646989310787  0.5423665787680108
  0.0011495834640485  0.5220970065529187  0.5418779069857109
  0.3006916088629552  0.7362354250029597  0.5330683143683217
  0.4953056546164234  0.1079601461215702  0.4826415583110517
  0.4149992735997827  0.1344536430661023  0.4821740627155862
  0.4139977260061229  0.1892422891449783  0.4843388838600191
  0.9166176254074401  0.2984086225039562  0.4870601180676317
  0.9200360541000663  0.3532657320729626  0.4847895617809215
  0.0012948300389013  0.3798598009992844  0.4861946160571904
  0.0795876141129384  0.3514546384125694  0.4885739993211970
  0.0769043569470327  0.2965585975237133  0.4896644563436041
  0.9950799091257565  0.2702549440430602  0.4902937829274734
  0.1614001282743587  0.2676155162309328  0.4882144046806189
  0.3287116767230671  0.2172097638987722  0.4843626395153109
  0.2680995178242682  0.2120503321461626  0.4317112916753558
  0.1855608457030371  0.2356635795063440  0.4342923422486891
  0.0029376140379043  0.4381742311345320  0.4840443916423283
  0.4967658381620268  0.0496392967701595  0.4821031366497337
  0.4890417028557721  0.0205694393902434  0.4229626098212194
  0.9985603985122538  0.4656544067589579  0.4235782736141047
  0.8302952338963223  0.2704064359450911  0.4850415845345637
  0.7707086611623168  0.2773523571776479  0.4322248466048251
  0.2236184442022164  0.2741754493756829  0.5396707885040328
  0.3046640988776375  0.2490642088445085  0.5382820399938453
  0.0041913971364806  0.4675874829699964  0.5432036515181693
  0.5086280086269994  0.0217078961528188  0.5417403709588058
  0.8039189252649734  0.2367660456925478  0.5369168472792936
  0.1417853245156806  0.7464274613178432  0.3212024833984231
  0.6509661712154156  0.2395932843561468  0.3218150658018146
  0.0542668703989264  0.7926850292524250  0.3860201930884344
  0.5625606015305493  0.2885124668027359  0.3825851022767495
  0.8541081110788298  0.6928471894771633  0.3433771242436734
  0.6391244614538039  0.7482709816459945  0.3260545336949932
  0.7364129672292279  0.6419732545372199  0.3574101384274968
  0.5527985216112441  0.6971579214895556  0.3873531101625005
  0.9251309087709600  0.5752526336690877  0.3468763034749074
  0.4198988586912265  0.9458532336253924  0.3248092916485419
  0.0536918569060987  0.5413833685366782  0.3195082394199602
  0.5454163480931555  0.9060929848652250  0.3465206093565527
  0.2401806535361288  0.8521887220777558  0.3630875091229839
  0.3561748487603680  0.8029249276235007  0.3434661083723753
  0.3623836360539414  0.1967607725851437  0.3430402545082885
  0.1480920668430059  0.2545583706556016  0.3250151068993290
  0.2418822477439235  0.1475333470777471  0.3521870477692275
  0.0588641626588071  0.2028377896338966  0.3831185294391659
  0.4152484449842504  0.0756169498285288  0.3505243260432422
  0.9317988559410324  0.4430162784326441  0.3233883778681275
  0.5426692520979657  0.0427278822319010  0.3184695069055508
  0.0589122383021774  0.4066184038750862  0.3492246966460044
  0.7496070642280941  0.3459598926152552  0.3581905884785783
  0.8668850995117410  0.2964116136171739  0.3453201715236958
 
  0.00000000E+00  0.00000000E+00  0.00000000E+00
  0.00000000E+00  0.00000000E+00  0.00000000E+00
  0.00000000E+00  0.00000000E+00  0.00000000E+00
  0.00000000E+00  0.00000000E+00  0.00000000E+00
  0.00000000E+00  0.00000000E+00  0.00000000E+00
  0.00000000E+00  0.00000000E+00  0.00000000E+00
  0.00000000E+00  0.00000000E+00  0.00000000E+00
  0.00000000E+00  0.00000000E+00  0.00000000E+00
  0.00000000E+00  0.00000000E+00  0.00000000E+00
  0.00000000E+00  0.00000000E+00  0.00000000E+00
  0.00000000E+00  0.00000000E+00  0.00000000E+00
  0.00000000E+00  0.00000000E+00  0.00000000E+00
  0.00000000E+00  0.00000000E+00  0.00000000E+00
  0.00000000E+00  0.00000000E+00  0.00000000E+00
  0.00000000E+00  0.00000000E+00  0.00000000E+00
  0.00000000E+00  0.00000000E+00  0.00000000E+00
  0.00000000E+00  0.00000000E+00  0.00000000E+00
  0.00000000E+00  0.00000000E+00  0.00000000E+00
  0.00000000E+00  0.00000000E+00  0.00000000E+00
  0.00000000E+00  0.00000000E+00  0.00000000E+00
  0.00000000E+00  0.00000000E+00  0.00000000E+00
  0.00000000E+00  0.00000000E+00  0.00000000E+00
  0.00000000E+00  0.00000000E+00  0.00000000E+00
  0.00000000E+00  0.00000000E+00  0.00000000E+00
  0.00000000E+00  0.00000000E+00  0.00000000E+00
  0.00000000E+00  0.00000000E+00  0.00000000E+00
  0.00000000E+00  0.00000000E+00  0.00000000E+00
  0.00000000E+00  0.00000000E+00  0.00000000E+00
  0.00000000E+00  0.00000000E+00  0.00000000E+00
  0.00000000E+00  0.00000000E+00  0.00000000E+00
  0.00000000E+00  0.00000000E+00  0.00000000E+00
  0.00000000E+00  0.00000000E+00  0.00000000E+00
  0.00000000E+00  0.00000000E+00  0.00000000E+00
  0.00000000E+00  0.00000000E+00  0.00000000E+00
  0.00000000E+00  0.00000000E+00  0.00000000E+00
  0.00000000E+00  0.00000000E+00  0.00000000E+00
  0.00000000E+00  0.00000000E+00  0.00000000E+00
  0.00000000E+00  0.00000000E+00  0.00000000E+00
  0.00000000E+00  0.00000000E+00  0.00000000E+00
  0.00000000E+00  0.00000000E+00  0.00000000E+00
  0.00000000E+00  0.00000000E+00  0.00000000E+00
  0.00000000E+00  0.00000000E+00  0.00000000E+00
  0.00000000E+00  0.00000000E+00  0.00000000E+00
  0.00000000E+00  0.00000000E+00  0.00000000E+00
  0.00000000E+00  0.00000000E+00  0.00000000E+00
  0.00000000E+00  0.00000000E+00  0.00000000E+00
  0.00000000E+00  0.00000000E+00  0.00000000E+00
  0.00000000E+00  0.00000000E+00  0.00000000E+00
  0.00000000E+00  0.00000000E+00  0.00000000E+00
  0.00000000E+00  0.00000000E+00  0.00000000E+00
  0.00000000E+00  0.00000000E+00  0.00000000E+00
  0.00000000E+00  0.00000000E+00  0.00000000E+00
  0.00000000E+00  0.00000000E+00  0.00000000E+00
  0.00000000E+00  0.00000000E+00  0.00000000E+00
  0.00000000E+00  0.00000000E+00  0.00000000E+00
  0.00000000E+00  0.00000000E+00  0.00000000E+00
  0.00000000E+00  0.00000000E+00  0.00000000E+00
  0.00000000E+00  0.00000000E+00  0.00000000E+00
  0.00000000E+00  0.00000000E+00  0.00000000E+00
  0.00000000E+00  0.00000000E+00  0.00000000E+00
  0.00000000E+00  0.00000000E+00  0.00000000E+00
  0.00000000E+00  0.00000000E+00  0.00000000E+00
  0.00000000E+00  0.00000000E+00  0.00000000E+00
  0.00000000E+00  0.00000000E+00  0.00000000E+00
  0.00000000E+00  0.00000000E+00  0.00000000E+00
  0.00000000E+00  0.00000000E+00  0.00000000E+00
  0.00000000E+00  0.00000000E+00  0.00000000E+00
  0.00000000E+00  0.00000000E+00  0.00000000E+00
  0.00000000E+00  0.00000000E+00  0.00000000E+00
  0.00000000E+00  0.00000000E+00  0.00000000E+00
  0.00000000E+00  0.00000000E+00  0.00000000E+00
  0.00000000E+00  0.00000000E+00  0.00000000E+00
  0.00000000E+00  0.00000000E+00  0.00000000E+00
  0.00000000E+00  0.00000000E+00  0.00000000E+00
  0.00000000E+00  0.00000000E+00  0.00000000E+00
  0.00000000E+00  0.00000000E+00  0.00000000E+00
  0.00000000E+00  0.00000000E+00  0.00000000E+00
  0.00000000E+00  0.00000000E+00  0.00000000E+00
  0.00000000E+00  0.00000000E+00  0.00000000E+00
  0.00000000E+00  0.00000000E+00  0.00000000E+00
  0.00000000E+00  0.00000000E+00  0.00000000E+00
  0.00000000E+00  0.00000000E+00  0.00000000E+00
  0.00000000E+00  0.00000000E+00  0.00000000E+00
  0.00000000E+00  0.00000000E+00  0.00000000E+00
  0.00000000E+00  0.00000000E+00  0.00000000E+00
  0.00000000E+00  0.00000000E+00  0.00000000E+00
  0.00000000E+00  0.00000000E+00  0.00000000E+00
  0.00000000E+00  0.00000000E+00  0.00000000E+00
  0.00000000E+00  0.00000000E+00  0.00000000E+00
  0.00000000E+00  0.00000000E+00  0.00000000E+00
  0.00000000E+00  0.00000000E+00  0.00000000E+00
  0.00000000E+00  0.00000000E+00  0.00000000E+00
  0.00000000E+00  0.00000000E+00  0.00000000E+00
  0.00000000E+00  0.00000000E+00  0.00000000E+00
  0.00000000E+00  0.00000000E+00  0.00000000E+00
  0.00000000E+00  0.00000000E+00  0.00000000E+00
  0.00000000E+00  0.00000000E+00  0.00000000E+00
  0.00000000E+00  0.00000000E+00  0.00000000E+00
  0.00000000E+00  0.00000000E+00  0.00000000E+00
  0.00000000E+00  0.00000000E+00  0.00000000E+00
  0.00000000E+00  0.00000000E+00  0.00000000E+00
  0.00000000E+00  0.00000000E+00  0.00000000E+00
  0.00000000E+00  0.00000000E+00  0.00000000E+00
  0.00000000E+00  0.00000000E+00  0.00000000E+00
  0.00000000E+00  0.00000000E+00  0.00000000E+00
  0.00000000E+00  0.00000000E+00  0.00000000E+00
  0.00000000E+00  0.00000000E+00  0.00000000E+00
  0.00000000E+00  0.00000000E+00  0.00000000E+00
  0.00000000E+00  0.00000000E+00  0.00000000E+00
  0.00000000E+00  0.00000000E+00  0.00000000E+00
  0.00000000E+00  0.00000000E+00  0.00000000E+00
  0.00000000E+00  0.00000000E+00  0.00000000E+00
  0.00000000E+00  0.00000000E+00  0.00000000E+00
  0.00000000E+00  0.00000000E+00  0.00000000E+00
  0.00000000E+00  0.00000000E+00  0.00000000E+00
  0.00000000E+00  0.00000000E+00  0.00000000E+00
  0.00000000E+00  0.00000000E+00  0.00000000E+00
  0.00000000E+00  0.00000000E+00  0.00000000E+00
  0.00000000E+00  0.00000000E+00  0.00000000E+00
  0.00000000E+00  0.00000000E+00  0.00000000E+00
