Primitive Cell                          
   1.00000000000000     
    21.9243537206902168   -0.0399170244580661    0.0000000000000000
   -10.9967572255170225   19.0149534668815896    0.0000000000000000
     0.0000000000000000    0.0000000000000000   20.0000000000000000
   H    C    N    O 
    21    30    15     6
Direct
  0.2473043875519423  0.7110025785883494  0.5495937858406066
  0.2960778391608017  0.5443321799556742  0.5480690967708384
  0.4635187784152279  0.7603163533080632  0.5482550045307093
  0.7516904684353563  0.2932176441162753  0.4336994220914505
  0.7129939580169946  0.4668593819478843  0.4344240677267948
  0.5386205403327722  0.2540150832564692  0.4333227711812881
  0.9219684601595048  0.3678830417234593  0.3939350815629652
  0.0047094620002781  0.3796791005201570  0.4084292368670859
  0.8391071711488678  0.3696306511212839  0.4773881569787335
  0.6380010178050810  0.5610315232495253  0.3923421638458322
  0.6270694529846281  0.6323499805361337  0.4061777676898970
  0.6367127733397311  0.4779933224228614  0.4762185247287647
  0.4436872188776206  0.0816258532934029  0.3900731134387030
  0.3730325346665921  0.9985905548510701  0.4041216338998055
  0.5265571567566099  0.1659692773049528  0.4742125815579996
  0.0338373643516761  0.6070140368455412  0.5665763528492036
  0.1537411121712751  0.6316128759255335  0.5499140409988286
  0.3992172999395294  0.4352329065866556  0.5655960589199083
  0.3749387029388913  0.5303157181655251  0.5475551239042815
  0.5723421431968561  0.9751011083361689  0.5664194829006348
  0.4777880526596121  0.8539752819533106  0.5492220623129214
  0.3872748263289836  0.6518186207786911  0.5496363837862006
  0.4068588372724804  0.7231883600055156  0.5501659270311450
  0.3559249990189315  0.7436014254783458  0.5506134737620698
  0.2843769394754858  0.6915705832110035  0.5508973382342930
  0.3157293838894191  0.6008732280336417  0.5499968025270761
  0.4468590031898358  0.6364689247325117  0.5436731350229138
  0.3712446694623566  0.8185497606773282  0.5456144158605483
  0.6189454033070874  0.3616341390941997  0.4358852894782785
  0.5956477219108791  0.2894562645529248  0.4350592938754616
  0.6439102279416602  0.2655778103587139  0.4353327691687170
  0.7162887455930331  0.3146682697340992  0.4352944126473659
  0.6913356135722992  0.4099416147293411  0.4357153886643843
  0.5625856683653723  0.3816933591118925  0.4383235821735880
  0.6235624804405546  0.1891328823395853  0.4371921648385069
  0.9329703292223215  0.4647774568513583  0.4809864688879344
  0.9829856888419428  0.4447316568204087  0.4619793472563174
  0.5414956287544825  0.4762223133714159  0.4802184454278802
  0.5618084427786130  0.5461601732276762  0.4606555522720370
  0.5292197419222333  0.0731260755263961  0.4788957611733622
  0.4594376124703743  0.0220970158418297  0.4595208897884717
  0.2637517019823861  0.6202079015182846  0.5503247053388023
  0.1886198548670137  0.5604558489867060  0.5448254559667021
  0.7404039841644021  0.3868628912334984  0.4360334839302809
  0.8170821029926785  0.4431841556703944  0.4383969977481357
  0.0188765241879665  0.5600223275048251  0.5364510696566356
  0.0678740968689482  0.5391299469514763  0.5192207436660397
  0.4463326291970517  0.4671329144311258  0.5353959933979553
  0.4675183477443809  0.5369497547515394  0.5176352909646340
  0.5398693351626207  0.9889648689209807  0.5356793949822105
  0.4701270848929866  0.9390028908263588  0.5183132761168352
  0.0501989138423795  0.4825216909873902  0.4815786499606958
  0.9639601153228909  0.3851588527693934  0.4250059402149304
  0.8614521780833329  0.4208030862210634  0.4629228740546054
  0.5243165863261439  0.5757707140303694  0.4799439476713019
  0.6214239823645471  0.5863001385444093  0.4233470005533206
  0.5852798410223343  0.4487073709386067  0.4623248154873920
  0.4306600382077619  0.9552995735168750  0.4798419973099755
  0.4186624490148887  0.0398741154083311  0.4213271135113956
  0.5559943933790947  0.1442096215115782  0.4601696029411286
  0.9515683279803753  0.5219258821858901  0.5173713014294208
  0.1383234521228260  0.5807594207693967  0.5392394058129710
  0.4842693121380464  0.4377959951572734  0.5167485371186800
  0.4260041098897887  0.5658462267426572  0.5371184180231765
  0.5683698450514356  0.0558974804039920  0.5159872528021339
  0.4419087444104832  0.8689203487479560  0.5389019051276662
  0.1747153001655732  0.4988369544032238  0.5439166624934231
  0.5087518057882932  0.6841457689247150  0.5433131146428707
  0.3234183685170819  0.8323523158470536  0.5460048937792052
  0.8372605692249095  0.5039073456655458  0.4203596792551210
  0.5015769580233709  0.3407280180225882  0.4208215941154236
  0.6648051883958033  0.1694811899212922  0.4201143049231177
 
  0.00000000E+00  0.00000000E+00  0.00000000E+00
  0.00000000E+00  0.00000000E+00  0.00000000E+00
  0.00000000E+00  0.00000000E+00  0.00000000E+00
  0.00000000E+00  0.00000000E+00  0.00000000E+00
  0.00000000E+00  0.00000000E+00  0.00000000E+00
  0.00000000E+00  0.00000000E+00  0.00000000E+00
  0.00000000E+00  0.00000000E+00  0.00000000E+00
  0.00000000E+00  0.00000000E+00  0.00000000E+00
  0.00000000E+00  0.00000000E+00  0.00000000E+00
  0.00000000E+00  0.00000000E+00  0.00000000E+00
  0.00000000E+00  0.00000000E+00  0.00000000E+00
  0.00000000E+00  0.00000000E+00  0.00000000E+00
  0.00000000E+00  0.00000000E+00  0.00000000E+00
  0.00000000E+00  0.00000000E+00  0.00000000E+00
  0.00000000E+00  0.00000000E+00  0.00000000E+00
  0.00000000E+00  0.00000000E+00  0.00000000E+00
  0.00000000E+00  0.00000000E+00  0.00000000E+00
  0.00000000E+00  0.00000000E+00  0.00000000E+00
  0.00000000E+00  0.00000000E+00  0.00000000E+00
  0.00000000E+00  0.00000000E+00  0.00000000E+00
  0.00000000E+00  0.00000000E+00  0.00000000E+00
  0.00000000E+00  0.00000000E+00  0.00000000E+00
  0.00000000E+00  0.00000000E+00  0.00000000E+00
  0.00000000E+00  0.00000000E+00  0.00000000E+00
  0.00000000E+00  0.00000000E+00  0.00000000E+00
  0.00000000E+00  0.00000000E+00  0.00000000E+00
  0.00000000E+00  0.00000000E+00  0.00000000E+00
  0.00000000E+00  0.00000000E+00  0.00000000E+00
  0.00000000E+00  0.00000000E+00  0.00000000E+00
  0.00000000E+00  0.00000000E+00  0.00000000E+00
  0.00000000E+00  0.00000000E+00  0.00000000E+00
  0.00000000E+00  0.00000000E+00  0.00000000E+00
  0.00000000E+00  0.00000000E+00  0.00000000E+00
  0.00000000E+00  0.00000000E+00  0.00000000E+00
  0.00000000E+00  0.00000000E+00  0.00000000E+00
  0.00000000E+00  0.00000000E+00  0.00000000E+00
  0.00000000E+00  0.00000000E+00  0.00000000E+00
  0.00000000E+00  0.00000000E+00  0.00000000E+00
  0.00000000E+00  0.00000000E+00  0.00000000E+00
  0.00000000E+00  0.00000000E+00  0.00000000E+00
  0.00000000E+00  0.00000000E+00  0.00000000E+00
  0.00000000E+00  0.00000000E+00  0.00000000E+00
  0.00000000E+00  0.00000000E+00  0.00000000E+00
  0.00000000E+00  0.00000000E+00  0.00000000E+00
  0.00000000E+00  0.00000000E+00  0.00000000E+00
  0.00000000E+00  0.00000000E+00  0.00000000E+00
  0.00000000E+00  0.00000000E+00  0.00000000E+00
  0.00000000E+00  0.00000000E+00  0.00000000E+00
  0.00000000E+00  0.00000000E+00  0.00000000E+00
  0.00000000E+00  0.00000000E+00  0.00000000E+00
  0.00000000E+00  0.00000000E+00  0.00000000E+00
  0.00000000E+00  0.00000000E+00  0.00000000E+00
  0.00000000E+00  0.00000000E+00  0.00000000E+00
  0.00000000E+00  0.00000000E+00  0.00000000E+00
  0.00000000E+00  0.00000000E+00  0.00000000E+00
  0.00000000E+00  0.00000000E+00  0.00000000E+00
  0.00000000E+00  0.00000000E+00  0.00000000E+00
  0.00000000E+00  0.00000000E+00  0.00000000E+00
  0.00000000E+00  0.00000000E+00  0.00000000E+00
  0.00000000E+00  0.00000000E+00  0.00000000E+00
  0.00000000E+00  0.00000000E+00  0.00000000E+00
  0.00000000E+00  0.00000000E+00  0.00000000E+00
  0.00000000E+00  0.00000000E+00  0.00000000E+00
  0.00000000E+00  0.00000000E+00  0.00000000E+00
  0.00000000E+00  0.00000000E+00  0.00000000E+00
  0.00000000E+00  0.00000000E+00  0.00000000E+00
  0.00000000E+00  0.00000000E+00  0.00000000E+00
  0.00000000E+00  0.00000000E+00  0.00000000E+00
  0.00000000E+00  0.00000000E+00  0.00000000E+00
  0.00000000E+00  0.00000000E+00  0.00000000E+00
  0.00000000E+00  0.00000000E+00  0.00000000E+00
  0.00000000E+00  0.00000000E+00  0.00000000E+00
