Primitive Cell                          
   1.00000000000000     
    29.5309469367721640   -0.0665225022742391    0.0000000000000000
   -14.8231449201111953   25.5552706053300369    0.0000000000000000
     0.0000000000000000    0.0000000000000000   20.0000000000000000
   O    H    N    C 
     6    33     9    60
Direct
  0.4075177785492770  0.9680409083505879  0.3638830333225727
  0.4414553164455484  0.9169214605041915  0.3533318708587316
  0.0319575131159766  0.5926164552786659  0.3631358013758401
  0.0832760821693483  0.5588174910571553  0.3534426808370412
  0.5596630141482848  0.5932193709366160  0.3625340646838779
  0.4743281261123684  0.5602157454810097  0.3537282108633093
  0.1203657529086470  0.6309308770642090  0.4774025740175034
  0.2176638348915958  0.6798268790388775  0.4820774771445500
  0.1197842865989784  0.4860541218404535  0.5074339306541376
  0.2173750662254506  0.5356310471544532  0.5112179773553507
  0.3173018914580084  0.5349993237065860  0.5129662897321765
  0.3645859975310586  0.4851148125127125  0.5078616785251455
  0.4626254002079264  0.6790596317007029  0.4846297096063665
  0.5103323406762641  0.6298477517671373  0.4789262392837941
  0.4638696613681077  0.7806858327697057  0.5082779533416968
  0.5137689943439199  0.8782568699496736  0.5052482334247586
  0.3690713268044732  0.8784944626885363  0.4770371372284572
  0.3198590990485712  0.7811972308190320  0.4807882542179982
  0.8781754995077975  0.3687115061461910  0.5308240220685292
  0.7807354692972552  0.3205993413151589  0.5326279880576479
  0.8786559267465321  0.5089995090965189  0.4697228219327059
  0.7812390117428691  0.4605173049477358  0.4729839535834230
  0.6777853971683001  0.4601841474060038  0.4682555749347799
  0.6287685066197781  0.5082226634172642  0.4654118452979503
  0.5371136279520385  0.3190421833072747  0.5243948883639931
  0.4877463199889291  0.3667440609979309  0.5231585378375669
  0.5372910919324596  0.2165954571556696  0.4797169620046944
  0.4891535859548526  0.1192078888117649  0.4758773584315605
  0.6302576352268474  0.1202297969801904  0.5344182508638795
  0.6780288831722316  0.2176084041747544  0.5367742851983763
  0.4861598019170970  0.0503963678082471  0.4093091506293405
  0.9489555337028150  0.5128030222553335  0.4057315609606462
  0.5620759173427956  0.5129407140580540  0.4021868281985803
  0.5147166327181765  0.9471717825290682  0.5823869685783620
  0.5628869962123275  0.0437206222664130  0.5897311547475681
  0.0500535532720718  0.4851713216787346  0.5828663691436802
  0.9533935735300929  0.4364096417204593  0.5876180801683475
  0.4334185609401899  0.4824397019990840  0.5810178912153887
  0.4808152237468661  0.4334768298033893  0.5827880285287534
  0.3066256868433896  0.6924789377935880  0.4952710289187010
  0.3870482421853438  0.6920666934836461  0.4979572936441201
  0.3058313405435911  0.6115825761428013  0.5008648186543354
  0.6922672270134740  0.3060397757901328  0.5098523960708263
  0.6114642609329763  0.3053954869403981  0.5024912643645365
  0.6923347227186341  0.3862200845047283  0.4966060466895357
  0.4362106301733846  0.9509671115809013  0.3824674975614499
  0.0488609571762169  0.5638399045297291  0.3819559310160585
  0.5137621652923769  0.5644302990157399  0.3813972499256906
  0.2816632054124213  0.6398378387007426  0.4979506876306701
  0.3593072132169297  0.7168291938411997  0.4961493814206293
  0.3585161900019003  0.6394413040468194  0.4996907704553308
  0.3887570593391558  0.7747853220241154  0.4946296554529184
  0.3623694075364767  0.8028339915695497  0.4858418269881071
  0.3901268806302411  0.8572327660297603  0.4835821576815817
  0.4449538832914186  0.8851548313877800  0.4906725872296391
  0.4711699624431702  0.8570393211555967  0.5003512646661434
  0.4435237664767087  0.8025653628467424  0.5018073897282136
  0.2236802530892277  0.6108112108592323  0.4968474231261197
  0.1958589530716992  0.6373550024066077  0.4874125395038007
  0.1414345123415615  0.6097581488941159  0.4846320764012617
  0.1132863356518570  0.5549650405326005  0.4918621587838246
  0.1411844400510560  0.5286288006931983  0.5024198943377343
  0.1956545249306743  0.5560948725830812  0.5043633442298372
  0.3869476593322219  0.6101236032272226  0.4990089473064856
  0.3596449887931357  0.5553733388444044  0.5060769213857697
  0.3862444533936440  0.5277260632139331  0.5033825805638443
  0.4406477473879562  0.5539360161019857  0.4925322313991600
  0.4679362717537572  0.6088025703089954  0.4862331458739035
  0.4415302767915037  0.6365617878417211  0.4896796708460300
  0.7168528847837266  0.3584773414966946  0.5032642059862695
  0.6396077162807572  0.2811817354291293  0.5072197279576329
  0.6396410223435751  0.3579847257807174  0.4984515092964230
  0.6107136924592140  0.2232627543455550  0.5083140599509477
  0.6364894118680766  0.1956244274984087  0.5242427093286324
  0.6095193421429457  0.1411589685436425  0.5230202876785839
  0.5563150218169142  0.1127049170318628  0.5045934894275064
  0.5306572315579672  0.1406201919649135  0.4890553316950559
  0.5572751361737431  0.1950408799386594  0.4914329405869182
  0.7748118706313250  0.3874750023119091  0.5028720434510419
  0.8026315033571478  0.3620189017589510  0.5195503907283552
  0.8571109744553027  0.3891857226541759  0.5186825399322217
  0.8854427201440487  0.4423047147319252  0.4999653578995833
  0.8573595913038616  0.4675660575789919  0.4832073475603096
  0.8028961701738524  0.4407286521874454  0.4851734534147312
  0.6105245299901938  0.3865591522609435  0.4963402514870623
  0.6360324005214935  0.4399973933277010  0.4796266662352267
  0.6083737194467460  0.4666098222251023  0.4779493227580076
  0.5547096497251758  0.4409278596036330  0.4941670906119811
  0.5295205631876527  0.3875224673867166  0.5114507813816971
  0.5568383501335603  0.3605766032327224  0.5119260052974681
  0.5283095536446609  0.0549404960544138  0.5005112980379849
  0.4929668223435755  0.0287222280389230  0.4482705759254699
  0.4679073807551717  0.9744073317661019  0.4434880683339273
  0.4745079077531429  0.9430685690795713  0.4910178976122026
  0.9432771472272421  0.4706884347010103  0.4973442892207345
  0.9701630150037772  0.5062133680408607  0.4455508975171796
  0.0245947614635966  0.5317416217060682  0.4423992107824333
  0.0553520644323697  0.5253564238387796  0.4910374861399944
  0.5254178964095146  0.4692874563109513  0.4929712744762824
  0.5342940971215384  0.5056681844432873  0.4423568820229420
  0.5056434361011526  0.5312947813943154  0.4407910752492015
  0.4685486434759483  0.5241699809296136  0.4900067065039835
  0.5096924213119678  0.9700741862092883  0.5433594922797482
  0.5364552199736039  0.0244878218102187  0.5477581716760653
  0.0276616837505230  0.4900293465032277  0.5429703022025123
  0.9731671506361721  0.4628771380239769  0.5458514375410459
  0.4606336626971199  0.4879397818952924  0.5407188452551068
  0.4877061842893653  0.4606867605777012  0.5419475024821807
 
  0.00000000E+00  0.00000000E+00  0.00000000E+00
  0.00000000E+00  0.00000000E+00  0.00000000E+00
  0.00000000E+00  0.00000000E+00  0.00000000E+00
  0.00000000E+00  0.00000000E+00  0.00000000E+00
  0.00000000E+00  0.00000000E+00  0.00000000E+00
  0.00000000E+00  0.00000000E+00  0.00000000E+00
  0.00000000E+00  0.00000000E+00  0.00000000E+00
  0.00000000E+00  0.00000000E+00  0.00000000E+00
  0.00000000E+00  0.00000000E+00  0.00000000E+00
  0.00000000E+00  0.00000000E+00  0.00000000E+00
  0.00000000E+00  0.00000000E+00  0.00000000E+00
  0.00000000E+00  0.00000000E+00  0.00000000E+00
  0.00000000E+00  0.00000000E+00  0.00000000E+00
  0.00000000E+00  0.00000000E+00  0.00000000E+00
  0.00000000E+00  0.00000000E+00  0.00000000E+00
  0.00000000E+00  0.00000000E+00  0.00000000E+00
  0.00000000E+00  0.00000000E+00  0.00000000E+00
  0.00000000E+00  0.00000000E+00  0.00000000E+00
  0.00000000E+00  0.00000000E+00  0.00000000E+00
  0.00000000E+00  0.00000000E+00  0.00000000E+00
  0.00000000E+00  0.00000000E+00  0.00000000E+00
  0.00000000E+00  0.00000000E+00  0.00000000E+00
  0.00000000E+00  0.00000000E+00  0.00000000E+00
  0.00000000E+00  0.00000000E+00  0.00000000E+00
  0.00000000E+00  0.00000000E+00  0.00000000E+00
  0.00000000E+00  0.00000000E+00  0.00000000E+00
  0.00000000E+00  0.00000000E+00  0.00000000E+00
  0.00000000E+00  0.00000000E+00  0.00000000E+00
  0.00000000E+00  0.00000000E+00  0.00000000E+00
  0.00000000E+00  0.00000000E+00  0.00000000E+00
  0.00000000E+00  0.00000000E+00  0.00000000E+00
  0.00000000E+00  0.00000000E+00  0.00000000E+00
  0.00000000E+00  0.00000000E+00  0.00000000E+00
  0.00000000E+00  0.00000000E+00  0.00000000E+00
  0.00000000E+00  0.00000000E+00  0.00000000E+00
  0.00000000E+00  0.00000000E+00  0.00000000E+00
  0.00000000E+00  0.00000000E+00  0.00000000E+00
  0.00000000E+00  0.00000000E+00  0.00000000E+00
  0.00000000E+00  0.00000000E+00  0.00000000E+00
  0.00000000E+00  0.00000000E+00  0.00000000E+00
  0.00000000E+00  0.00000000E+00  0.00000000E+00
  0.00000000E+00  0.00000000E+00  0.00000000E+00
  0.00000000E+00  0.00000000E+00  0.00000000E+00
  0.00000000E+00  0.00000000E+00  0.00000000E+00
  0.00000000E+00  0.00000000E+00  0.00000000E+00
  0.00000000E+00  0.00000000E+00  0.00000000E+00
  0.00000000E+00  0.00000000E+00  0.00000000E+00
  0.00000000E+00  0.00000000E+00  0.00000000E+00
  0.00000000E+00  0.00000000E+00  0.00000000E+00
  0.00000000E+00  0.00000000E+00  0.00000000E+00
  0.00000000E+00  0.00000000E+00  0.00000000E+00
  0.00000000E+00  0.00000000E+00  0.00000000E+00
  0.00000000E+00  0.00000000E+00  0.00000000E+00
  0.00000000E+00  0.00000000E+00  0.00000000E+00
  0.00000000E+00  0.00000000E+00  0.00000000E+00
  0.00000000E+00  0.00000000E+00  0.00000000E+00
  0.00000000E+00  0.00000000E+00  0.00000000E+00
  0.00000000E+00  0.00000000E+00  0.00000000E+00
  0.00000000E+00  0.00000000E+00  0.00000000E+00
  0.00000000E+00  0.00000000E+00  0.00000000E+00
  0.00000000E+00  0.00000000E+00  0.00000000E+00
  0.00000000E+00  0.00000000E+00  0.00000000E+00
  0.00000000E+00  0.00000000E+00  0.00000000E+00
  0.00000000E+00  0.00000000E+00  0.00000000E+00
  0.00000000E+00  0.00000000E+00  0.00000000E+00
  0.00000000E+00  0.00000000E+00  0.00000000E+00
  0.00000000E+00  0.00000000E+00  0.00000000E+00
  0.00000000E+00  0.00000000E+00  0.00000000E+00
  0.00000000E+00  0.00000000E+00  0.00000000E+00
  0.00000000E+00  0.00000000E+00  0.00000000E+00
  0.00000000E+00  0.00000000E+00  0.00000000E+00
  0.00000000E+00  0.00000000E+00  0.00000000E+00
  0.00000000E+00  0.00000000E+00  0.00000000E+00
  0.00000000E+00  0.00000000E+00  0.00000000E+00
  0.00000000E+00  0.00000000E+00  0.00000000E+00
  0.00000000E+00  0.00000000E+00  0.00000000E+00
  0.00000000E+00  0.00000000E+00  0.00000000E+00
  0.00000000E+00  0.00000000E+00  0.00000000E+00
  0.00000000E+00  0.00000000E+00  0.00000000E+00
  0.00000000E+00  0.00000000E+00  0.00000000E+00
  0.00000000E+00  0.00000000E+00  0.00000000E+00
  0.00000000E+00  0.00000000E+00  0.00000000E+00
  0.00000000E+00  0.00000000E+00  0.00000000E+00
  0.00000000E+00  0.00000000E+00  0.00000000E+00
  0.00000000E+00  0.00000000E+00  0.00000000E+00
  0.00000000E+00  0.00000000E+00  0.00000000E+00
  0.00000000E+00  0.00000000E+00  0.00000000E+00
  0.00000000E+00  0.00000000E+00  0.00000000E+00
  0.00000000E+00  0.00000000E+00  0.00000000E+00
  0.00000000E+00  0.00000000E+00  0.00000000E+00
  0.00000000E+00  0.00000000E+00  0.00000000E+00
  0.00000000E+00  0.00000000E+00  0.00000000E+00
  0.00000000E+00  0.00000000E+00  0.00000000E+00
  0.00000000E+00  0.00000000E+00  0.00000000E+00
  0.00000000E+00  0.00000000E+00  0.00000000E+00
  0.00000000E+00  0.00000000E+00  0.00000000E+00
  0.00000000E+00  0.00000000E+00  0.00000000E+00
  0.00000000E+00  0.00000000E+00  0.00000000E+00
  0.00000000E+00  0.00000000E+00  0.00000000E+00
  0.00000000E+00  0.00000000E+00  0.00000000E+00
  0.00000000E+00  0.00000000E+00  0.00000000E+00
  0.00000000E+00  0.00000000E+00  0.00000000E+00
  0.00000000E+00  0.00000000E+00  0.00000000E+00
  0.00000000E+00  0.00000000E+00  0.00000000E+00
  0.00000000E+00  0.00000000E+00  0.00000000E+00
  0.00000000E+00  0.00000000E+00  0.00000000E+00
  0.00000000E+00  0.00000000E+00  0.00000000E+00
  0.00000000E+00  0.00000000E+00  0.00000000E+00
