Primitive Cell                          
   1.00000000000000     
    21.8448352848727865    0.0442973403927340    0.0000000000000000
   -10.8841615576267277   19.0118059940528781    0.0000000000000000
     0.0000000000000000    0.0000000000000000   20.0000000000000000
   H    C    N 
    30    30    12
Direct
  0.4653977774893576  0.8276056716885947  0.4997775069575354
  0.3615409559541831  0.5377965408616490  0.5026524162719639
  0.1750331418613911  0.6425602205710348  0.5045288906707412
  0.5353196101930990  0.1760678489727709  0.4997494147635209
  0.6400253527065658  0.4657347929037883  0.4992245235971708
  0.8259423870766440  0.3600693190705471  0.4988881297259340
  0.0778260803631170  0.5515151195689754  0.4022505588111542
  0.9529594129528789  0.5236241254738445  0.3976881240234178
  0.1586858790910455  0.5172463158917324  0.5554658087782443
  0.1588537201061300  0.5056797090947427  0.4682189898019757
  0.4524120488304675  0.5289625478235180  0.3992574900936532
  0.4778006965751871  0.4302724520732184  0.3972321931139575
  0.4896401774174990  0.6474944653070764  0.5496762999406073
  0.4976693318518315  0.6548286632356550  0.4618554216401591
  0.4721544409002263  0.9267970170875230  0.3986820161900084
  0.5705096186043335  0.0501399292588118  0.3965829861692498
  0.3553041834392445  0.8450773440824406  0.5500911421453196
  0.3465485413832070  0.8463406140461558  0.4624817336522895
  0.0483119088367019  0.4785280974090966  0.6057777919130061
  0.9234552544359360  0.4506450120977092  0.6012290349207206
  0.8428538419933531  0.4970710511447365  0.5355978120573113
  0.8429025261834155  0.4858387390376677  0.4482937124715392
  0.5236917838676902  0.5731312971227780  0.6033038821792260
  0.5490199561965667  0.4743811846734758  0.6012921653626648
  0.5032832134994223  0.3482136595922967  0.5382652905796448
  0.5127667963900748  0.3564170168106742  0.4506079247855084
  0.4294347272649830  0.9529149050702870  0.6035886223328006
  0.5277345299497895  0.0762823309865936  0.6014726867435556
  0.6537187702573064  0.1564682662664154  0.5375531313528370
  0.6447094448576181  0.1577642126392576  0.4499809860497876
  0.2655665504547926  0.6394132998592426  0.4963079523601408
  0.3720553380794769  0.7375614281089540  0.4945719627765399
  0.3643831408821185  0.6310760444576786  0.4951747668579642
  0.7355404225566531  0.3635414902185943  0.5063641061350310
  0.6288290465027657  0.2656574516359029  0.5065472622404954
  0.6369239758271732  0.3723041549171739  0.5064544927542514
  0.0716219904505095  0.5167668570083919  0.5043267405419556
  0.0440029951785021  0.5294127826461690  0.4460374998922063
  0.9739096317558591  0.5138762462393913  0.4435507659006674
  0.1475969335073799  0.5342920353963621  0.5072334022877527
  0.4865223124746265  0.5580085654366655  0.5014083731625547
  0.4735586879206721  0.5170047033440497  0.4437358116168184
  0.4876986896491573  0.4614802710318529  0.4426538441730372
  0.4702474207268281  0.6173761890469009  0.5027822798026804
  0.4438708090044514  0.9313988551012642  0.5012864419187721
  0.4843393264917992  0.9595257026499340  0.4433278314100875
  0.5396662967797496  0.0287799879696138  0.4421988510370625
  0.3848361951267307  0.8561674189832758  0.5027334490685220
  0.9572648696361128  0.4727388973657867  0.5574282655483955
  0.0273671566539235  0.4882970912692954  0.5599203746058521
  0.9296851517436053  0.4855189838321579  0.4991820297814016
  0.8538396783955804  0.4684385722059545  0.4963953766845677
  0.5278305044519840  0.4863243096258216  0.5568353146980556
  0.5137198413451785  0.5418617371889880  0.5579092716077980
  0.5149175186345758  0.4453593878971560  0.4991460439302671
  0.5313338902607114  0.3861064286286933  0.4978126455580423
  0.5155978745485683  0.0435476839740758  0.5568387479404748
  0.4602789983199429  0.9742832775656680  0.5579736456038020
  0.5561166476107644  0.0716582767195462  0.4988954007860542
  0.6153469590435066  0.1468153807506454  0.4974424778869064
  0.3019417215221196  0.7106064228957649  0.4957974235747571
  0.4070982683132769  0.7009407574091853  0.4940815580288103
  0.2929580054191376  0.5965005326278856  0.4963058784553525
  0.4129381570672592  0.8086936447432436  0.4941362571529240
  0.3947379699811719  0.5898484817405389  0.4955659634978176
  0.1941573583691181  0.6093099161148032  0.4972160454286865
  0.6989381719669154  0.2923480321682703  0.5064262840275120
  0.5939771570477177  0.3024838551278890  0.5065211192560639
  0.7083253997191008  0.4066035319986199  0.5062236136336153
  0.5876060163536749  0.1945595596449792  0.5063155921946887
  0.6067278069085660  0.4136827666250156  0.5062010984295782
  0.8069505027890074  0.3934450179655258  0.5060923482565372
 
  0.00000000E+00  0.00000000E+00  0.00000000E+00
  0.00000000E+00  0.00000000E+00  0.00000000E+00
  0.00000000E+00  0.00000000E+00  0.00000000E+00
  0.00000000E+00  0.00000000E+00  0.00000000E+00
  0.00000000E+00  0.00000000E+00  0.00000000E+00
  0.00000000E+00  0.00000000E+00  0.00000000E+00
  0.00000000E+00  0.00000000E+00  0.00000000E+00
  0.00000000E+00  0.00000000E+00  0.00000000E+00
  0.00000000E+00  0.00000000E+00  0.00000000E+00
  0.00000000E+00  0.00000000E+00  0.00000000E+00
  0.00000000E+00  0.00000000E+00  0.00000000E+00
  0.00000000E+00  0.00000000E+00  0.00000000E+00
  0.00000000E+00  0.00000000E+00  0.00000000E+00
  0.00000000E+00  0.00000000E+00  0.00000000E+00
  0.00000000E+00  0.00000000E+00  0.00000000E+00
  0.00000000E+00  0.00000000E+00  0.00000000E+00
  0.00000000E+00  0.00000000E+00  0.00000000E+00
  0.00000000E+00  0.00000000E+00  0.00000000E+00
  0.00000000E+00  0.00000000E+00  0.00000000E+00
  0.00000000E+00  0.00000000E+00  0.00000000E+00
  0.00000000E+00  0.00000000E+00  0.00000000E+00
  0.00000000E+00  0.00000000E+00  0.00000000E+00
  0.00000000E+00  0.00000000E+00  0.00000000E+00
  0.00000000E+00  0.00000000E+00  0.00000000E+00
  0.00000000E+00  0.00000000E+00  0.00000000E+00
  0.00000000E+00  0.00000000E+00  0.00000000E+00
  0.00000000E+00  0.00000000E+00  0.00000000E+00
  0.00000000E+00  0.00000000E+00  0.00000000E+00
  0.00000000E+00  0.00000000E+00  0.00000000E+00
  0.00000000E+00  0.00000000E+00  0.00000000E+00
  0.00000000E+00  0.00000000E+00  0.00000000E+00
  0.00000000E+00  0.00000000E+00  0.00000000E+00
  0.00000000E+00  0.00000000E+00  0.00000000E+00
  0.00000000E+00  0.00000000E+00  0.00000000E+00
  0.00000000E+00  0.00000000E+00  0.00000000E+00
  0.00000000E+00  0.00000000E+00  0.00000000E+00
  0.00000000E+00  0.00000000E+00  0.00000000E+00
  0.00000000E+00  0.00000000E+00  0.00000000E+00
  0.00000000E+00  0.00000000E+00  0.00000000E+00
  0.00000000E+00  0.00000000E+00  0.00000000E+00
  0.00000000E+00  0.00000000E+00  0.00000000E+00
  0.00000000E+00  0.00000000E+00  0.00000000E+00
  0.00000000E+00  0.00000000E+00  0.00000000E+00
  0.00000000E+00  0.00000000E+00  0.00000000E+00
  0.00000000E+00  0.00000000E+00  0.00000000E+00
  0.00000000E+00  0.00000000E+00  0.00000000E+00
  0.00000000E+00  0.00000000E+00  0.00000000E+00
  0.00000000E+00  0.00000000E+00  0.00000000E+00
  0.00000000E+00  0.00000000E+00  0.00000000E+00
  0.00000000E+00  0.00000000E+00  0.00000000E+00
  0.00000000E+00  0.00000000E+00  0.00000000E+00
  0.00000000E+00  0.00000000E+00  0.00000000E+00
  0.00000000E+00  0.00000000E+00  0.00000000E+00
  0.00000000E+00  0.00000000E+00  0.00000000E+00
  0.00000000E+00  0.00000000E+00  0.00000000E+00
  0.00000000E+00  0.00000000E+00  0.00000000E+00
  0.00000000E+00  0.00000000E+00  0.00000000E+00
  0.00000000E+00  0.00000000E+00  0.00000000E+00
  0.00000000E+00  0.00000000E+00  0.00000000E+00
  0.00000000E+00  0.00000000E+00  0.00000000E+00
  0.00000000E+00  0.00000000E+00  0.00000000E+00
  0.00000000E+00  0.00000000E+00  0.00000000E+00
  0.00000000E+00  0.00000000E+00  0.00000000E+00
  0.00000000E+00  0.00000000E+00  0.00000000E+00
  0.00000000E+00  0.00000000E+00  0.00000000E+00
  0.00000000E+00  0.00000000E+00  0.00000000E+00
  0.00000000E+00  0.00000000E+00  0.00000000E+00
  0.00000000E+00  0.00000000E+00  0.00000000E+00
  0.00000000E+00  0.00000000E+00  0.00000000E+00
  0.00000000E+00  0.00000000E+00  0.00000000E+00
  0.00000000E+00  0.00000000E+00  0.00000000E+00
  0.00000000E+00  0.00000000E+00  0.00000000E+00
