Primitive Cell                          
   1.00000000000000     
    23.0171590603978657    0.0090772653576287    0.0000000000000000
   -11.5005132556369940   20.0086753808429556    0.0000000000000000
     0.0000000000000000    0.0000000000000000   20.0000000000000000
   C    H    N    O 
    66    54    24     6
Direct
  0.5212389900467400  0.0411596805200531  0.4840889660514520
  0.4894724151805860  0.0776221365061858  0.5018623784249243
  0.5932226458952030  0.0793894780700555  0.4786567885315023
  0.5232396244251731  0.1457009825933895  0.5173294700394422
  0.6281807079813078  0.1457345282799949  0.5022733997967066
  0.5135845626386555  0.9285058825241279  0.4862443444123414
  0.4804744587799306  0.8589745089283554  0.4850773669545347
  0.4097062577856789  0.8236795868578639  0.4810339563275221
  0.5937527166150076  0.1793597492932832  0.5221011412682373
  0.4152846001253181  0.4895495902159084  0.4962526642652421
  0.3800734641584569  0.5236631554364024  0.5052677004301458
  0.4162112117015084  0.5941336941191508  0.5065323033707330
  0.5882690602270486  0.4164293634145153  0.5413117648313772
  0.6252445621584073  0.4847713108233762  0.5236426302666501
  0.5902927786155914  0.5160463936166337  0.5009572080256461
  0.0777769564512383  0.5935495194793887  0.4969040400578493
  0.1451536709134871  0.6287005960784953  0.5159556294031944
  0.1771650306463997  0.5920378705760569  0.5328261570114066
  0.8225952617982486  0.4160958929302012  0.4972312279952931
  0.8589535278417983  0.3815494487473501  0.4968247769768581
  0.9284817373801104  0.4182861281453611  0.4923861781382399
  0.4910590370599692  0.1878514749359468  0.5217834006803841
  0.4906811916687062  0.3051999313461522  0.5221878824555262
  0.4846346436854958  0.2159995736498601  0.5821228533557559
  0.4803345374088082  0.1851064662383166  0.6500519724422844
  0.6992180212114505  0.5164259000976870  0.5169534427007036
  0.8161857536902275  0.5184147601963573  0.4959859437960716
  0.7445903958236997  0.5289410926621727  0.5702320187398087
  0.7316278612222433  0.5420179509860006  0.6414412419463318
  0.8183485618192776  0.3072222783619551  0.4988577336665543
  0.7024344128916198  0.1888547250075376  0.5002811373604743
  0.7934289994418648  0.2708244345825577  0.5590486767962943
  0.8262069205907210  0.2961650151937150  0.6265407642522334
  0.5137102545461119  0.8176792925880321  0.4872849020743786
  0.5164165221974599  0.7017822757181662  0.4877081457499486
  0.5237183503413547  0.7915357568962804  0.5475498616301948
  0.5287307961306382  0.8222486585542299  0.6157844841524351
  0.3059428429235211  0.4920102813844167  0.5111443155701068
  0.1888991125210211  0.4931843387913730  0.5152993761458475
  0.2734652536617190  0.4870257820319353  0.5726133732181395
  0.3023601689619966  0.4845104141911492  0.6398844175547325
  0.1873309596817663  0.7022708623875786  0.5069203887444473
  0.3014768951123727  0.8186697840588124  0.4832380633606164
  0.2203572456344745  0.7489724662283592  0.5590721362098350
  0.1944973166639414  0.7376501197261902  0.6302947208974530
  0.4821716331606538  0.9670971441343355  0.4766627322256198
  0.3757002248710393  0.8601353237914466  0.4752166994077882
  0.4108585668966640  0.9300502493050189  0.4664239475613314
  0.4844481452293579  0.5207776645086497  0.4823910105041449
  0.4849594394612851  0.6276479497171366  0.4896808432853632
  0.5176306776461814  0.5919865283370456  0.4721190063512992
  0.5210767446376536  0.4829536113154660  0.4885898496487542
  0.4883192153511970  0.4110476302782544  0.4902091895335658
  0.5204733673270070  0.3790407116448904  0.5202943904828814
  0.0406057178901023  0.5240853784533570  0.4866999421459397
  0.1451370090917621  0.5235849909696242  0.5146871418150738
  0.0798017776209718  0.4909820008204733  0.4874845407797324
  0.9660700288168229  0.4879995391252265  0.4814896871877252
  0.9271477643425428  0.5208233325443103  0.4739872988090994
  0.8580158682488914  0.4860119912971115  0.4883087152117440
  0.4771773845251275  0.2664665974363771  0.4634049280296395
  0.7815070403982105  0.5281396054674019  0.4429686032231075
  0.7380926527053830  0.2159706182237002  0.4404097620339513
  0.5261612075940434  0.7383107842623673  0.4283444387420872
  0.2122780145157890  0.4789553417727888  0.4556232497922466
  0.2567940413787966  0.7825845136429521  0.4310363300255275
  0.4352372170988161  0.0516740479529645  0.5068272589919900
  0.6082858765058887  0.0156622644692348  0.4185860352818693
  0.4726215399188831  0.1001211288476682  0.6222374633862273
  0.6797348153646254  0.0849304433322189  0.4442257030699963
  0.4519936636613053  0.1998140715441181  0.6834793875736977
  0.5672987687719129  0.9540087901973564  0.4953711573592514
  0.6047834898042979  0.2707039200126431  0.5489352457409566
  0.3973479352345208  0.7287472924217866  0.4740136338823362
  0.3871408483089951  0.4357318326044464  0.5034925133573580
  0.6194091542650213  0.5700987518417122  0.4966163451103967
  0.6657671752085648  0.4134801559663401  0.5885758837435162
  0.3346105012469636  0.6064616006743293  0.5262160325389829
  0.0530733551220877  0.6230802484296021  0.4938658176153083
  0.9547556710006475  0.3904679434367537  0.4987839882297465
  0.7274133837689547  0.3329598411639694  0.4971608477067235
  0.2617203272828093  0.6712853905299099  0.5723255164778251
  0.5316679147075476  0.2071051731538844  0.6710655168847453
  0.7129440594044780  0.4953853416581282  0.6711295779051412
  0.7799425889161071  0.5783063973062426  0.6637224423163133
  0.6468953265402675  0.5401796748359615  0.6234628555162018
  0.8084617474517231  0.3291867660186512  0.6472586759586818
  0.8083989331367363  0.2530185354527745  0.6602371778195248
  0.9143154310521240  0.3715029199252911  0.6032418247614473
  0.4772352755995612  0.8043913574897985  0.6345813036207275
  0.5524497017392420  0.8028203034802388  0.6498498341889629
  0.5424920664353081  0.9113632134607172  0.5958000887200399
  0.3334750933965012  0.5364122119386678  0.6585140773427511
  0.2605619985933885  0.4587124417721000  0.6751779550730319
  0.3783937757627100  0.4741426128544006  0.6123938017064887
  0.2189975707536647  0.7149130801405761  0.6596376922147940
  0.2102848609473682  0.7867001807029084  0.6528962170016186
  0.1083789339608430  0.6560210676979921  0.6150989696370459
  0.3968371117244658  0.0036844712494428  0.4250724470218969
  0.3259371455143949  0.9288923822652535  0.4350841346697223
  0.6683956829543476  0.2585270243275062  0.5720972957620418
  0.3263990220689195  0.7314915995962679  0.4678531701810584
  0.5979811863935396  0.6044443887861419  0.4161410996740784
  0.5989281000299940  0.6764761657998548  0.4361097689123525
  0.4055485317031895  0.3219352219337708  0.4635542758206341
  0.4087812444161258  0.3911429553894124  0.4286593184416603
  0.5885016332320063  0.3481441567820553  0.6042263463876765
  0.4092718943498923  0.6705809175220168  0.5498614301495053
  0.0202432191929560  0.4105535075622981  0.4273557974615514
  0.0866543429878490  0.4082875000455246  0.4623198778094135
  0.9212653956754480  0.6025308205397764  0.4454799077909826
  0.9933742727447665  0.6053531407361064  0.4229317788017823
  0.7287528775667766  0.4058256926363555  0.4924318630670399
  0.2487151422569198  0.5947540443665460  0.5935805978776756
  0.4690839678116987  0.2835348242193163  0.4150942721410757
  0.7990614337445692  0.5344476643316582  0.3912359462284343
  0.7191083292657723  0.1920788042718087  0.3918770075698461
  0.5321913602061557  0.7201634051591981  0.3797599351267706
  0.1858145573379844  0.4709163627613364  0.4080908274232939
  0.2673650192348802  0.7988180796538273  0.3788951134346163
  0.6306136910734068  0.0524610112692230  0.4530998886495752
  0.3737484315927588  0.7546008087208378  0.4863483257594297
  0.6309664792548020  0.2470776407062800  0.5386193223683762
  0.3847923127809807  0.6316429248796851  0.5177787656667832
  0.6187986326363628  0.3835600409187663  0.5706629528073179
  0.2423397993366549  0.6228451639793846  0.5582222456679347
  0.7539952883902856  0.3826306988502708  0.5078670413762865
  0.4883068835065458  0.2758922062729283  0.5811278721356956
  0.8000867849408095  0.5255393000881696  0.5589144153905963
  0.7341707293746680  0.2141520443878022  0.5586987316704466
  0.5213808329678926  0.7323850202403577  0.5465066736351005
  0.2174719699457839  0.4913524730507461  0.5734168290560646
  0.2788924227637537  0.8039956587690824  0.5465184878739322
  0.3732678801919675  0.9602983164205838  0.4511821841770782
  0.5827966309847739  0.6281637867148859  0.4483752298446220
  0.4241714995950048  0.3719576143222056  0.4656512744854027
  0.0544252906807756  0.4261187690561599  0.4647542224093186
  0.9550760404639007  0.5878012569191426  0.4562449514183626
  0.4807710635277047  0.2105789677973036  0.4634416134853012
  0.7221570642161836  0.5238026199711925  0.4537796647386614
  0.7934305694347614  0.2760595510993582  0.4401988044712297
  0.5213239999087094  0.7937192053936428  0.4285667858127979
  0.2716272361333480  0.4819543365907890  0.4537268777341765
  0.2023452777611041  0.7233540306746704  0.4432312877639717
  0.4470972901312749  0.1141522024186514  0.6503062616595230
  0.6885073550768865  0.5692751754996763  0.6473919075063961
  0.8974642354024596  0.3287153082187402  0.6260469570405149
  0.5677115248128644  0.8932040043047422  0.6179821285633125
  0.3386796243651986  0.4495886502061595  0.6403652432379872
  0.1235538694080134  0.6995954409907483  0.6358229507105619
 
  0.00000000E+00  0.00000000E+00  0.00000000E+00
  0.00000000E+00  0.00000000E+00  0.00000000E+00
  0.00000000E+00  0.00000000E+00  0.00000000E+00
  0.00000000E+00  0.00000000E+00  0.00000000E+00
  0.00000000E+00  0.00000000E+00  0.00000000E+00
  0.00000000E+00  0.00000000E+00  0.00000000E+00
  0.00000000E+00  0.00000000E+00  0.00000000E+00
  0.00000000E+00  0.00000000E+00  0.00000000E+00
  0.00000000E+00  0.00000000E+00  0.00000000E+00
  0.00000000E+00  0.00000000E+00  0.00000000E+00
  0.00000000E+00  0.00000000E+00  0.00000000E+00
  0.00000000E+00  0.00000000E+00  0.00000000E+00
  0.00000000E+00  0.00000000E+00  0.00000000E+00
  0.00000000E+00  0.00000000E+00  0.00000000E+00
  0.00000000E+00  0.00000000E+00  0.00000000E+00
  0.00000000E+00  0.00000000E+00  0.00000000E+00
  0.00000000E+00  0.00000000E+00  0.00000000E+00
  0.00000000E+00  0.00000000E+00  0.00000000E+00
  0.00000000E+00  0.00000000E+00  0.00000000E+00
  0.00000000E+00  0.00000000E+00  0.00000000E+00
  0.00000000E+00  0.00000000E+00  0.00000000E+00
  0.00000000E+00  0.00000000E+00  0.00000000E+00
  0.00000000E+00  0.00000000E+00  0.00000000E+00
  0.00000000E+00  0.00000000E+00  0.00000000E+00
  0.00000000E+00  0.00000000E+00  0.00000000E+00
  0.00000000E+00  0.00000000E+00  0.00000000E+00
  0.00000000E+00  0.00000000E+00  0.00000000E+00
  0.00000000E+00  0.00000000E+00  0.00000000E+00
  0.00000000E+00  0.00000000E+00  0.00000000E+00
  0.00000000E+00  0.00000000E+00  0.00000000E+00
  0.00000000E+00  0.00000000E+00  0.00000000E+00
  0.00000000E+00  0.00000000E+00  0.00000000E+00
  0.00000000E+00  0.00000000E+00  0.00000000E+00
  0.00000000E+00  0.00000000E+00  0.00000000E+00
  0.00000000E+00  0.00000000E+00  0.00000000E+00
  0.00000000E+00  0.00000000E+00  0.00000000E+00
  0.00000000E+00  0.00000000E+00  0.00000000E+00
  0.00000000E+00  0.00000000E+00  0.00000000E+00
  0.00000000E+00  0.00000000E+00  0.00000000E+00
  0.00000000E+00  0.00000000E+00  0.00000000E+00
  0.00000000E+00  0.00000000E+00  0.00000000E+00
  0.00000000E+00  0.00000000E+00  0.00000000E+00
  0.00000000E+00  0.00000000E+00  0.00000000E+00
  0.00000000E+00  0.00000000E+00  0.00000000E+00
  0.00000000E+00  0.00000000E+00  0.00000000E+00
  0.00000000E+00  0.00000000E+00  0.00000000E+00
  0.00000000E+00  0.00000000E+00  0.00000000E+00
  0.00000000E+00  0.00000000E+00  0.00000000E+00
  0.00000000E+00  0.00000000E+00  0.00000000E+00
  0.00000000E+00  0.00000000E+00  0.00000000E+00
  0.00000000E+00  0.00000000E+00  0.00000000E+00
  0.00000000E+00  0.00000000E+00  0.00000000E+00
  0.00000000E+00  0.00000000E+00  0.00000000E+00
  0.00000000E+00  0.00000000E+00  0.00000000E+00
  0.00000000E+00  0.00000000E+00  0.00000000E+00
  0.00000000E+00  0.00000000E+00  0.00000000E+00
  0.00000000E+00  0.00000000E+00  0.00000000E+00
  0.00000000E+00  0.00000000E+00  0.00000000E+00
  0.00000000E+00  0.00000000E+00  0.00000000E+00
  0.00000000E+00  0.00000000E+00  0.00000000E+00
  0.00000000E+00  0.00000000E+00  0.00000000E+00
  0.00000000E+00  0.00000000E+00  0.00000000E+00
  0.00000000E+00  0.00000000E+00  0.00000000E+00
  0.00000000E+00  0.00000000E+00  0.00000000E+00
  0.00000000E+00  0.00000000E+00  0.00000000E+00
  0.00000000E+00  0.00000000E+00  0.00000000E+00
  0.00000000E+00  0.00000000E+00  0.00000000E+00
  0.00000000E+00  0.00000000E+00  0.00000000E+00
  0.00000000E+00  0.00000000E+00  0.00000000E+00
  0.00000000E+00  0.00000000E+00  0.00000000E+00
  0.00000000E+00  0.00000000E+00  0.00000000E+00
  0.00000000E+00  0.00000000E+00  0.00000000E+00
  0.00000000E+00  0.00000000E+00  0.00000000E+00
  0.00000000E+00  0.00000000E+00  0.00000000E+00
  0.00000000E+00  0.00000000E+00  0.00000000E+00
  0.00000000E+00  0.00000000E+00  0.00000000E+00
  0.00000000E+00  0.00000000E+00  0.00000000E+00
  0.00000000E+00  0.00000000E+00  0.00000000E+00
  0.00000000E+00  0.00000000E+00  0.00000000E+00
  0.00000000E+00  0.00000000E+00  0.00000000E+00
  0.00000000E+00  0.00000000E+00  0.00000000E+00
  0.00000000E+00  0.00000000E+00  0.00000000E+00
  0.00000000E+00  0.00000000E+00  0.00000000E+00
  0.00000000E+00  0.00000000E+00  0.00000000E+00
  0.00000000E+00  0.00000000E+00  0.00000000E+00
  0.00000000E+00  0.00000000E+00  0.00000000E+00
  0.00000000E+00  0.00000000E+00  0.00000000E+00
  0.00000000E+00  0.00000000E+00  0.00000000E+00
  0.00000000E+00  0.00000000E+00  0.00000000E+00
  0.00000000E+00  0.00000000E+00  0.00000000E+00
  0.00000000E+00  0.00000000E+00  0.00000000E+00
  0.00000000E+00  0.00000000E+00  0.00000000E+00
  0.00000000E+00  0.00000000E+00  0.00000000E+00
  0.00000000E+00  0.00000000E+00  0.00000000E+00
  0.00000000E+00  0.00000000E+00  0.00000000E+00
  0.00000000E+00  0.00000000E+00  0.00000000E+00
  0.00000000E+00  0.00000000E+00  0.00000000E+00
  0.00000000E+00  0.00000000E+00  0.00000000E+00
  0.00000000E+00  0.00000000E+00  0.00000000E+00
  0.00000000E+00  0.00000000E+00  0.00000000E+00
  0.00000000E+00  0.00000000E+00  0.00000000E+00
  0.00000000E+00  0.00000000E+00  0.00000000E+00
  0.00000000E+00  0.00000000E+00  0.00000000E+00
  0.00000000E+00  0.00000000E+00  0.00000000E+00
  0.00000000E+00  0.00000000E+00  0.00000000E+00
  0.00000000E+00  0.00000000E+00  0.00000000E+00
  0.00000000E+00  0.00000000E+00  0.00000000E+00
  0.00000000E+00  0.00000000E+00  0.00000000E+00
  0.00000000E+00  0.00000000E+00  0.00000000E+00
  0.00000000E+00  0.00000000E+00  0.00000000E+00
  0.00000000E+00  0.00000000E+00  0.00000000E+00
  0.00000000E+00  0.00000000E+00  0.00000000E+00
  0.00000000E+00  0.00000000E+00  0.00000000E+00
  0.00000000E+00  0.00000000E+00  0.00000000E+00
  0.00000000E+00  0.00000000E+00  0.00000000E+00
  0.00000000E+00  0.00000000E+00  0.00000000E+00
  0.00000000E+00  0.00000000E+00  0.00000000E+00
  0.00000000E+00  0.00000000E+00  0.00000000E+00
  0.00000000E+00  0.00000000E+00  0.00000000E+00
  0.00000000E+00  0.00000000E+00  0.00000000E+00
  0.00000000E+00  0.00000000E+00  0.00000000E+00
  0.00000000E+00  0.00000000E+00  0.00000000E+00
  0.00000000E+00  0.00000000E+00  0.00000000E+00
  0.00000000E+00  0.00000000E+00  0.00000000E+00
  0.00000000E+00  0.00000000E+00  0.00000000E+00
  0.00000000E+00  0.00000000E+00  0.00000000E+00
  0.00000000E+00  0.00000000E+00  0.00000000E+00
  0.00000000E+00  0.00000000E+00  0.00000000E+00
  0.00000000E+00  0.00000000E+00  0.00000000E+00
  0.00000000E+00  0.00000000E+00  0.00000000E+00
  0.00000000E+00  0.00000000E+00  0.00000000E+00
  0.00000000E+00  0.00000000E+00  0.00000000E+00
  0.00000000E+00  0.00000000E+00  0.00000000E+00
  0.00000000E+00  0.00000000E+00  0.00000000E+00
  0.00000000E+00  0.00000000E+00  0.00000000E+00
  0.00000000E+00  0.00000000E+00  0.00000000E+00
  0.00000000E+00  0.00000000E+00  0.00000000E+00
  0.00000000E+00  0.00000000E+00  0.00000000E+00
  0.00000000E+00  0.00000000E+00  0.00000000E+00
  0.00000000E+00  0.00000000E+00  0.00000000E+00
  0.00000000E+00  0.00000000E+00  0.00000000E+00
  0.00000000E+00  0.00000000E+00  0.00000000E+00
  0.00000000E+00  0.00000000E+00  0.00000000E+00
  0.00000000E+00  0.00000000E+00  0.00000000E+00
  0.00000000E+00  0.00000000E+00  0.00000000E+00
  0.00000000E+00  0.00000000E+00  0.00000000E+00
  0.00000000E+00  0.00000000E+00  0.00000000E+00
  0.00000000E+00  0.00000000E+00  0.00000000E+00
  0.00000000E+00  0.00000000E+00  0.00000000E+00
  0.00000000E+00  0.00000000E+00  0.00000000E+00
