Primitive Cell                          
   1.00000000000000     
    36.7280107402717206    0.0000000000000000    0.0000000000000000
   -18.3640053701358674   31.8073903315430258    0.0000000000000000
     0.0000000000000000    0.0000000000000000   20.0000000000000000
   C    N    H 
    72    12    42
Direct
  0.3539919011515735  0.7079838023031400  0.5031218426587714
  0.3539919011515735  0.6460080988484265  0.5031218426587714
  0.2920161976968600  0.6460080988484265  0.5031218426587714
  0.3772530803470175  0.6227469196529825  0.5028486592297341
  0.4214146784939601  0.6445100214928488  0.5026238993007439
  0.4432563319001446  0.6225855376732312  0.5017675628145426
  0.4215708680566337  0.5784291319433663  0.5010298893838083
  0.3774144623267688  0.5567436680998554  0.5017675628145426
  0.3554899785071512  0.5785853215060399  0.5026238993007439
  0.3772530803470175  0.7545061606940351  0.5028486592297341
  0.4214146784939601  0.7769046570010971  0.5026238993007439
  0.4432563319001446  0.8206707942269134  0.5017675628145426
  0.4215708680566266  0.8431417361132674  0.5010298893838083
  0.3774144623267688  0.8206707942269134  0.5017675628145426
  0.3554899785071512  0.7769046570010971  0.5026238993007439
  0.2454938393059649  0.6227469196529825  0.5028486592297341
  0.2230953429989029  0.6445100214928488  0.5026238993007439
  0.1793292057730866  0.6225855376732312  0.5017675628145426
  0.1568582638867326  0.5784291319433663  0.5010298893838083
  0.1793292057730866  0.5567436680998554  0.5017675628145426
  0.2230953429989029  0.5785853215060399  0.5026238993007439
  0.6460067069066042  0.2920134138132084  0.5001395616935866
  0.6460067069066042  0.3539932930933958  0.5001395616935866
  0.7079865861867916  0.3539932930933958  0.5001395616935866
  0.6227427080713142  0.3772572919286787  0.5007219291233866
  0.5785796987041678  0.3555001225515326  0.5012342653367838
  0.5567414107170450  0.3774236116615768  0.5025704277398688
  0.5784215503464054  0.4215784496535946  0.5035107098877987
  0.6225763883384232  0.4432585892829550  0.5025704277398688
  0.6444998774484674  0.4214203012958322  0.5012342653367838
  0.6227427080713142  0.2454854161426212  0.5007219291233866
  0.5785796987041678  0.2230795761526210  0.5012342653367838
  0.5567414107170450  0.1793177990554682  0.5025704277398688
  0.5784215503464054  0.1568431006928037  0.5035107098877987
  0.6225763883384232  0.1793177990554682  0.5025704277398688
  0.6444998774484674  0.2230795761526210  0.5012342653367838
  0.7545145838573717  0.3772572919286787  0.5007219291233866
  0.7769204238473719  0.3555001225515326  0.5012342653367838
  0.8206822009445318  0.3774236116615768  0.5025704277398688
  0.8431568993071963  0.4215784496535946  0.5035107098877987
  0.8206822009445318  0.4432585892829550  0.5025704277398688
  0.7769204238473719  0.4214203012958322  0.5012342653367838
  0.4568663851369266  0.5431336148630734  0.5581774240188082
  0.5116594519195203  0.4883405480804797  0.5042880622634414
  0.5221981980195451  0.4778018019804549  0.5659689397223460
  0.5440587503591132  0.4559412496408868  0.5664834535279581
  0.5550818650770069  0.4449181349229931  0.5057827086620037
  0.4568663851369266  0.9137327702738602  0.5581774240188082
  0.5116594519195203  0.0233189038390336  0.5042880622634414
  0.5221981980195451  0.0443963960390832  0.5659689397223460
  0.5440587503591132  0.0881175007182264  0.5664834535279581
  0.5550818650770069  0.1101637301540208  0.5057827086620037
  0.0862672297261398  0.5431336148630734  0.5581774240188082
  0.9766810961609664  0.4883405480804797  0.5042880622634414
  0.9556036039609168  0.4778018019804549  0.5659689397223460
  0.9118824992817736  0.4559412496408868  0.5664834535279581
  0.8898362698459721  0.4449181349229931  0.5057827086620037
  0.4449108220882181  0.5550891779117819  0.4990978849770116
  0.4559888768888598  0.5440111231111402  0.4385052906695250
  0.4778427917058536  0.5221572082941464  0.4393058680382751
  0.4883145236323045  0.5116854763676955  0.5011279707992813
  0.5430579782071732  0.4569420217928268  0.4468585663695634
  0.4449108220882181  0.8898216441764433  0.4990978849770116
  0.4559888768888598  0.9119777537777196  0.4385052906695250
  0.4778427917058536  0.9556855834117073  0.4393058680382751
  0.4883145236323045  0.9766290472646020  0.5011279707992813
  0.5430579782071732  0.0861159564143463  0.4468585663695634
  0.1101783558235567  0.5550891779117819  0.4990978849770116
  0.0880222462222804  0.5440111231111402  0.4385052906695250
  0.0443144165882927  0.5221572082941464  0.4393058680382751
  0.0233709527353980  0.5116854763676955  0.5011279707992813
  0.9138840435856537  0.4569420217928268  0.4468585663695634
  0.3765271933692915  0.6882635966846493  0.5031202531874825
  0.3117364033153578  0.6234728066307085  0.5031202531874825
  0.3117364033153578  0.6882635966846493  0.5031202531874825
  0.6234617840423482  0.3117308920211741  0.5000907356584889
  0.6882691079788259  0.3765382159576518  0.5000907356584889
  0.6882691079788259  0.3117308920211741  0.5000907356584889
  0.4778584038709823  0.5221415961290177  0.5597797520745473
  0.4778584038709823  0.9557168077419647  0.5597797520745473
  0.0442831922580353  0.5221415961290177  0.5597797520745473
  0.5220718417423811  0.4779281582576189  0.4455880812674877
  0.5220718417423811  0.0441436834847835  0.4455880812674877
  0.9558563165152165  0.4779281582576189  0.4455880812674877
  0.4775668246960691  0.8378846767585912  0.5014531747549711
  0.4381688820678065  0.7594089349643838  0.5029849297727935
  0.3603178520625221  0.8378846767585912  0.5014531747549711
  0.3212400528965702  0.7594089349643838  0.5029849297727935
  0.2405910650356091  0.6787599471034298  0.5029849297727935
  0.1621153232414088  0.6396821479374779  0.5014531747549711
  0.2405910650356091  0.5618311179321935  0.5029849297727935
  0.1621153232414088  0.5224331753039309  0.5014531747549711
  0.3212400528965702  0.5618311179321935  0.5029849297727935
  0.3603178520625221  0.5224331753039309  0.5014531747549711
  0.4775668246960691  0.6396821479374779  0.5014531747549711
  0.4381688820678065  0.6787599471034298  0.5029849297727935
  0.5224352427846668  0.1621202529790793  0.5030934185390734
  0.5618224082182550  0.2405728628342487  0.5007473478191500
  0.6396850101943983  0.1621202529790793  0.5030934185390734
  0.6787504546159866  0.2405728628342487  0.5007473478191500
  0.7594271371657513  0.3212495453840134  0.5007473478191500
  0.8378797470209207  0.3603149898056017  0.5030934185390734
  0.7594271371657513  0.4381775917817450  0.5007473478191500
  0.8378797470209207  0.4775647572153332  0.5030934185390734
  0.6787504546159866  0.4381775917817450  0.5007473478191500
  0.6396850101943983  0.4775647572153332  0.5030934185390734
  0.5224352427846668  0.3603149898056017  0.5030934185390734
  0.5618224082182550  0.3212495453840134  0.5007473478191500
  0.5130248840583533  0.4869751159416467  0.6119417785824837
  0.5526946905197576  0.4473053094802495  0.6136469002208287
  0.4488823408814895  0.5511176591185105  0.6066430679243382
  0.5130248840583533  0.0260497681167067  0.6119417785824837
  0.5526946905197576  0.1053893810395152  0.6136469002208287
  0.4488823408814895  0.8977646817629861  0.6066430679243382
  0.9739502318832933  0.4869751159416467  0.6119417785824837
  0.8946106189604919  0.4473053094802495  0.6136469002208287
  0.1022353182370139  0.5511176591185105  0.6066430679243382
  0.5509655222770675  0.4490344777229325  0.3982686768459729
  0.4474052444603345  0.5525947555396655  0.3912382641777015
  0.4870740075110120  0.5129259924889880  0.3934490056095470
  0.5509655222770675  0.1019310445541279  0.3982686768459729
  0.4474052444603345  0.8948104889206761  0.3912382641777015
  0.4870740075110120  0.9741480150220170  0.3934490056095470
  0.8980689554458650  0.4490344777229325  0.3982686768459729
  0.1051895110793239  0.5525947555396655  0.3912382641777015
  0.0258519849779830  0.5129259924889880  0.3934490056095470
 
  0.00000000E+00  0.00000000E+00  0.00000000E+00
  0.00000000E+00  0.00000000E+00  0.00000000E+00
  0.00000000E+00  0.00000000E+00  0.00000000E+00
  0.00000000E+00  0.00000000E+00  0.00000000E+00
  0.00000000E+00  0.00000000E+00  0.00000000E+00
  0.00000000E+00  0.00000000E+00  0.00000000E+00
  0.00000000E+00  0.00000000E+00  0.00000000E+00
  0.00000000E+00  0.00000000E+00  0.00000000E+00
  0.00000000E+00  0.00000000E+00  0.00000000E+00
  0.00000000E+00  0.00000000E+00  0.00000000E+00
  0.00000000E+00  0.00000000E+00  0.00000000E+00
  0.00000000E+00  0.00000000E+00  0.00000000E+00
  0.00000000E+00  0.00000000E+00  0.00000000E+00
  0.00000000E+00  0.00000000E+00  0.00000000E+00
  0.00000000E+00  0.00000000E+00  0.00000000E+00
  0.00000000E+00  0.00000000E+00  0.00000000E+00
  0.00000000E+00  0.00000000E+00  0.00000000E+00
  0.00000000E+00  0.00000000E+00  0.00000000E+00
  0.00000000E+00  0.00000000E+00  0.00000000E+00
  0.00000000E+00  0.00000000E+00  0.00000000E+00
  0.00000000E+00  0.00000000E+00  0.00000000E+00
  0.00000000E+00  0.00000000E+00  0.00000000E+00
  0.00000000E+00  0.00000000E+00  0.00000000E+00
  0.00000000E+00  0.00000000E+00  0.00000000E+00
  0.00000000E+00  0.00000000E+00  0.00000000E+00
  0.00000000E+00  0.00000000E+00  0.00000000E+00
  0.00000000E+00  0.00000000E+00  0.00000000E+00
  0.00000000E+00  0.00000000E+00  0.00000000E+00
  0.00000000E+00  0.00000000E+00  0.00000000E+00
  0.00000000E+00  0.00000000E+00  0.00000000E+00
  0.00000000E+00  0.00000000E+00  0.00000000E+00
  0.00000000E+00  0.00000000E+00  0.00000000E+00
  0.00000000E+00  0.00000000E+00  0.00000000E+00
  0.00000000E+00  0.00000000E+00  0.00000000E+00
  0.00000000E+00  0.00000000E+00  0.00000000E+00
  0.00000000E+00  0.00000000E+00  0.00000000E+00
  0.00000000E+00  0.00000000E+00  0.00000000E+00
  0.00000000E+00  0.00000000E+00  0.00000000E+00
  0.00000000E+00  0.00000000E+00  0.00000000E+00
  0.00000000E+00  0.00000000E+00  0.00000000E+00
  0.00000000E+00  0.00000000E+00  0.00000000E+00
  0.00000000E+00  0.00000000E+00  0.00000000E+00
  0.00000000E+00  0.00000000E+00  0.00000000E+00
  0.00000000E+00  0.00000000E+00  0.00000000E+00
  0.00000000E+00  0.00000000E+00  0.00000000E+00
  0.00000000E+00  0.00000000E+00  0.00000000E+00
  0.00000000E+00  0.00000000E+00  0.00000000E+00
  0.00000000E+00  0.00000000E+00  0.00000000E+00
  0.00000000E+00  0.00000000E+00  0.00000000E+00
  0.00000000E+00  0.00000000E+00  0.00000000E+00
  0.00000000E+00  0.00000000E+00  0.00000000E+00
  0.00000000E+00  0.00000000E+00  0.00000000E+00
  0.00000000E+00  0.00000000E+00  0.00000000E+00
  0.00000000E+00  0.00000000E+00  0.00000000E+00
  0.00000000E+00  0.00000000E+00  0.00000000E+00
  0.00000000E+00  0.00000000E+00  0.00000000E+00
  0.00000000E+00  0.00000000E+00  0.00000000E+00
  0.00000000E+00  0.00000000E+00  0.00000000E+00
  0.00000000E+00  0.00000000E+00  0.00000000E+00
  0.00000000E+00  0.00000000E+00  0.00000000E+00
  0.00000000E+00  0.00000000E+00  0.00000000E+00
  0.00000000E+00  0.00000000E+00  0.00000000E+00
  0.00000000E+00  0.00000000E+00  0.00000000E+00
  0.00000000E+00  0.00000000E+00  0.00000000E+00
  0.00000000E+00  0.00000000E+00  0.00000000E+00
  0.00000000E+00  0.00000000E+00  0.00000000E+00
  0.00000000E+00  0.00000000E+00  0.00000000E+00
  0.00000000E+00  0.00000000E+00  0.00000000E+00
  0.00000000E+00  0.00000000E+00  0.00000000E+00
  0.00000000E+00  0.00000000E+00  0.00000000E+00
  0.00000000E+00  0.00000000E+00  0.00000000E+00
  0.00000000E+00  0.00000000E+00  0.00000000E+00
  0.00000000E+00  0.00000000E+00  0.00000000E+00
  0.00000000E+00  0.00000000E+00  0.00000000E+00
  0.00000000E+00  0.00000000E+00  0.00000000E+00
  0.00000000E+00  0.00000000E+00  0.00000000E+00
  0.00000000E+00  0.00000000E+00  0.00000000E+00
  0.00000000E+00  0.00000000E+00  0.00000000E+00
  0.00000000E+00  0.00000000E+00  0.00000000E+00
  0.00000000E+00  0.00000000E+00  0.00000000E+00
  0.00000000E+00  0.00000000E+00  0.00000000E+00
  0.00000000E+00  0.00000000E+00  0.00000000E+00
  0.00000000E+00  0.00000000E+00  0.00000000E+00
  0.00000000E+00  0.00000000E+00  0.00000000E+00
  0.00000000E+00  0.00000000E+00  0.00000000E+00
  0.00000000E+00  0.00000000E+00  0.00000000E+00
  0.00000000E+00  0.00000000E+00  0.00000000E+00
  0.00000000E+00  0.00000000E+00  0.00000000E+00
  0.00000000E+00  0.00000000E+00  0.00000000E+00
  0.00000000E+00  0.00000000E+00  0.00000000E+00
  0.00000000E+00  0.00000000E+00  0.00000000E+00
  0.00000000E+00  0.00000000E+00  0.00000000E+00
  0.00000000E+00  0.00000000E+00  0.00000000E+00
  0.00000000E+00  0.00000000E+00  0.00000000E+00
  0.00000000E+00  0.00000000E+00  0.00000000E+00
  0.00000000E+00  0.00000000E+00  0.00000000E+00
  0.00000000E+00  0.00000000E+00  0.00000000E+00
  0.00000000E+00  0.00000000E+00  0.00000000E+00
  0.00000000E+00  0.00000000E+00  0.00000000E+00
  0.00000000E+00  0.00000000E+00  0.00000000E+00
  0.00000000E+00  0.00000000E+00  0.00000000E+00
  0.00000000E+00  0.00000000E+00  0.00000000E+00
  0.00000000E+00  0.00000000E+00  0.00000000E+00
  0.00000000E+00  0.00000000E+00  0.00000000E+00
  0.00000000E+00  0.00000000E+00  0.00000000E+00
  0.00000000E+00  0.00000000E+00  0.00000000E+00
  0.00000000E+00  0.00000000E+00  0.00000000E+00
  0.00000000E+00  0.00000000E+00  0.00000000E+00
  0.00000000E+00  0.00000000E+00  0.00000000E+00
  0.00000000E+00  0.00000000E+00  0.00000000E+00
  0.00000000E+00  0.00000000E+00  0.00000000E+00
  0.00000000E+00  0.00000000E+00  0.00000000E+00
  0.00000000E+00  0.00000000E+00  0.00000000E+00
  0.00000000E+00  0.00000000E+00  0.00000000E+00
  0.00000000E+00  0.00000000E+00  0.00000000E+00
  0.00000000E+00  0.00000000E+00  0.00000000E+00
  0.00000000E+00  0.00000000E+00  0.00000000E+00
  0.00000000E+00  0.00000000E+00  0.00000000E+00
  0.00000000E+00  0.00000000E+00  0.00000000E+00
  0.00000000E+00  0.00000000E+00  0.00000000E+00
  0.00000000E+00  0.00000000E+00  0.00000000E+00
  0.00000000E+00  0.00000000E+00  0.00000000E+00
  0.00000000E+00  0.00000000E+00  0.00000000E+00
  0.00000000E+00  0.00000000E+00  0.00000000E+00
  0.00000000E+00  0.00000000E+00  0.00000000E+00
  0.00000000E+00  0.00000000E+00  0.00000000E+00
