Primitive Cell                          
   1.00000000000000     
    22.9640214762815837   -0.0381411997887126    0.0000000000000000
   -11.5149581750826595   19.9209158670922868    0.0000000000000000
     0.0000000000000000    0.0000000000000000   20.0000000000000000
   C    N    H    O 
    60    12    30     6
Direct
  0.1648367154365502  0.6316240870870971  0.4906505768522962
  0.0950810292387061  0.5946707393810655  0.4971662886375867
  0.2821324463226915  0.8047704591868765  0.5502246971842837
  0.2225164909857824  0.7434438226051725  0.5496518266333084
  0.2056464032705136  0.7062541020885433  0.4900268127995346
  0.2121148664043062  0.4981353811143663  0.5159414621947747
  0.2223781519257884  0.4818696512123708  0.5807581074036108
  0.2796775909255729  0.4773347204206928  0.5922105592848723
  0.0598062745059877  0.5242733309757668  0.5043470387412867
  0.0988296015322661  0.4928438303601439  0.5095212282760713
  0.1688239641028275  0.5281859260201145  0.5036758476154191
  0.2021726598310565  0.5979721906372433  0.4907548015737149
  0.4982246162377706  0.8619956522356489  0.4960509945472111
  0.5325176191771988  0.9285079221537131  0.5195234108581630
  0.5060160933444067  0.0777601569390569  0.5432674198510625
  0.5408855257187000  0.1472797111258899  0.5497268755611699
  0.3970176195722459  0.5194403604746682  0.5432472330445322
  0.4343266062791287  0.4870632921604710  0.5395543183190057
  0.3199798204707207  0.8248640117616617  0.4909453723646706
  0.5278720039751050  0.7001254119569751  0.5184400130482558
  0.5700011961213107  0.7562340866160326  0.5584392200657362
  0.5686314395906962  0.8152695296183410  0.5486158823954526
  0.5254387066914461  0.8161675014919823  0.4987997004348159
  0.3225173864739332  0.4896333881380528  0.5377634861591574
  0.5163759257560585  0.3095295932158635  0.5128416921261660
  0.4802773728219023  0.2720359554565164  0.5691102632722291
  0.4796490197268994  0.2123440204163884  0.5817438584613015
  0.5130750742457550  0.1923440842640289  0.5365318133597086
  0.5009565792078234  0.9669410594993835  0.5266688785329592
  0.4303191043936963  0.9328958951621900  0.5172853905890875
  0.3944079006418022  0.8675979344995497  0.4931362182383197
  0.4293555231948787  0.8333255439138725  0.4764409937856016
  0.5391817711936611  0.0401999667852522  0.5408274607755814
  0.5052573956561801  0.5231047438349208  0.5339995787807936
  0.5373760200287450  0.5938128429661589  0.5307873913294614
  0.5012892957433479  0.6277442597411138  0.5331658638665289
  0.4306933913674484  0.5900781780842124  0.5411593899361833
  0.5435801911958364  0.4875283532282708  0.5239200189296085
  0.5446089925416686  0.3824888667933237  0.5045443020224596
  0.5116506908461673  0.4169960166613293  0.5240716421377201
  0.6135284120619673  0.5228385561061941  0.5110930053579281
  0.6482757261740204  0.4906033363544111  0.4914358507971031
  0.6116302229056814  0.1817964066651570  0.5562507450792396
  0.6465663474852974  0.1460026156430771  0.5529235603088622
  0.6100903541858287  0.0763725238604280  0.5448166132384387
  0.6126635870586981  0.4199654435423810  0.4825687276635335
  0.9486576896225856  0.4156611921282547  0.5175862696544584
  0.8784951866779238  0.3790095759009091  0.5164436749596675
  0.7211852617784587  0.1898506516868039  0.5499751375357391
  0.7605560281415933  0.2215165280377178  0.6065137658275148
  0.8203125908872551  0.2817220730968941  0.5965517496772463
  0.8360564724044863  0.3059795004143666  0.5309076774404033
  0.8353596899370856  0.5151138160664672  0.4899612411412306
  0.8209469980757049  0.5416666327415740  0.5466032127319806
  0.7620999554417551  0.5446788508748241  0.5453905770271703
  0.7224546817403024  0.5214617804904407  0.4874246418633632
  0.9851072223350101  0.4855589212186402  0.5060785366349663
  0.8420946281286845  0.4123354874218492  0.5040999382037583
  0.8770827870370326  0.4825618260224118  0.4949034837260200
  0.9472264938967001  0.5174486747343181  0.4952835701335445
  0.2355203897522458  0.7357815839416659  0.4316059155912981
  0.2921114101126392  0.7953991983394602  0.4319238429821368
  0.3017956742748780  0.4897884560843195  0.4743774213806589
  0.2469194349454611  0.4938930278805032  0.4634320868201200
  0.4970345378747467  0.7644109512597836  0.4547853431295010
  0.4968716506692985  0.7073774652430345  0.4646478611605076
  0.5344911983676752  0.2229182929245894  0.4768450008798837
  0.5367369072023394  0.2807683968792389  0.4661615272956183
  0.8043859013340082  0.2655542710408625  0.4780623074143477
  0.7470963617340658  0.2079756734693845  0.4875526066243197
  0.7481440191497697  0.5134741320038927  0.4296031649759300
  0.8040066799512005  0.5093611805035820  0.4310595382807989
  0.2875730722017593  0.6758640489489238  0.4654419846233182
  0.0683256855687659  0.6225915688500265  0.4964598971235930
  0.1928082628364507  0.7219867303806566  0.5948953485918196
  0.3020388540666303  0.8337449014555531  0.5961462598245006
  0.2935198766699827  0.4698340945446873  0.6423071886585348
  0.1889066794610628  0.4778112067982150  0.6214690285107238
  0.0746508606948524  0.4387466573988306  0.5173179978229072
  0.4306692325649308  0.7597335395566773  0.4354301159939951
  0.4518641715119074  0.0534285870482591  0.5354620899526026
  0.4028797516864842  0.6521111384731526  0.5109254237219361
  0.4066687997664644  0.4323839684089990  0.5371981121479124
  0.5960776121483633  0.8581554433927892  0.5818910763067322
  0.5990999222840472  0.7517461390775253  0.5991661413134750
  0.4576427605883140  0.1839340513676575  0.6275430562702340
  0.4587871713705809  0.2921660324019726  0.6045352113800604
  0.4019541801268076  0.9581637022877132  0.5277924297178416
  0.4589050152526113  0.3869627041130315  0.5385472911207003
  0.6904320258986800  0.2726284580112335  0.5513073464232860
  0.5859159300991692  0.9506459699826593  0.5310470847777964
  0.6100856570600612  0.3421491750874495  0.4475626615747146
  0.6423268154897528  0.5774340809870182  0.5150529236725845
  0.6387878749145344  0.0506691546278830  0.5392532119574298
  0.5915031679578959  0.6236788307113628  0.5225277979307279
  0.7515605839255244  0.3971423825834037  0.4850709817138537
  0.9749239920609227  0.3880445713946585  0.5269934475301810
  0.8514363543209456  0.3117420582323405  0.6383137516825954
  0.7423409061223225  0.2018406874867438  0.6565134418790279
  0.7440765352083218  0.5589413295331624  0.5894259192954294
  0.8521566040789494  0.5541772207320363  0.5913253801943554
  0.9722608562828299  0.5713557854140703  0.4862276173229745
  0.2704079354178504  0.6308523656044827  0.4841650032721390
  0.3945934554520107  0.7722827891054678  0.4480902143495555
  0.3913508568577626  0.6191184971582544  0.5466395638985944
  0.6426684047620554  0.2499604241683429  0.5631672125633571
  0.6462870132384424  0.3899980445918487  0.4593507399814030
  0.7730850440109833  0.3741795572210620  0.5059304975220158
 
  0.00000000E+00  0.00000000E+00  0.00000000E+00
  0.00000000E+00  0.00000000E+00  0.00000000E+00
  0.00000000E+00  0.00000000E+00  0.00000000E+00
  0.00000000E+00  0.00000000E+00  0.00000000E+00
  0.00000000E+00  0.00000000E+00  0.00000000E+00
  0.00000000E+00  0.00000000E+00  0.00000000E+00
  0.00000000E+00  0.00000000E+00  0.00000000E+00
  0.00000000E+00  0.00000000E+00  0.00000000E+00
  0.00000000E+00  0.00000000E+00  0.00000000E+00
  0.00000000E+00  0.00000000E+00  0.00000000E+00
  0.00000000E+00  0.00000000E+00  0.00000000E+00
  0.00000000E+00  0.00000000E+00  0.00000000E+00
  0.00000000E+00  0.00000000E+00  0.00000000E+00
  0.00000000E+00  0.00000000E+00  0.00000000E+00
  0.00000000E+00  0.00000000E+00  0.00000000E+00
  0.00000000E+00  0.00000000E+00  0.00000000E+00
  0.00000000E+00  0.00000000E+00  0.00000000E+00
  0.00000000E+00  0.00000000E+00  0.00000000E+00
  0.00000000E+00  0.00000000E+00  0.00000000E+00
  0.00000000E+00  0.00000000E+00  0.00000000E+00
  0.00000000E+00  0.00000000E+00  0.00000000E+00
  0.00000000E+00  0.00000000E+00  0.00000000E+00
  0.00000000E+00  0.00000000E+00  0.00000000E+00
  0.00000000E+00  0.00000000E+00  0.00000000E+00
  0.00000000E+00  0.00000000E+00  0.00000000E+00
  0.00000000E+00  0.00000000E+00  0.00000000E+00
  0.00000000E+00  0.00000000E+00  0.00000000E+00
  0.00000000E+00  0.00000000E+00  0.00000000E+00
  0.00000000E+00  0.00000000E+00  0.00000000E+00
  0.00000000E+00  0.00000000E+00  0.00000000E+00
  0.00000000E+00  0.00000000E+00  0.00000000E+00
  0.00000000E+00  0.00000000E+00  0.00000000E+00
  0.00000000E+00  0.00000000E+00  0.00000000E+00
  0.00000000E+00  0.00000000E+00  0.00000000E+00
  0.00000000E+00  0.00000000E+00  0.00000000E+00
  0.00000000E+00  0.00000000E+00  0.00000000E+00
  0.00000000E+00  0.00000000E+00  0.00000000E+00
  0.00000000E+00  0.00000000E+00  0.00000000E+00
  0.00000000E+00  0.00000000E+00  0.00000000E+00
  0.00000000E+00  0.00000000E+00  0.00000000E+00
  0.00000000E+00  0.00000000E+00  0.00000000E+00
  0.00000000E+00  0.00000000E+00  0.00000000E+00
  0.00000000E+00  0.00000000E+00  0.00000000E+00
  0.00000000E+00  0.00000000E+00  0.00000000E+00
  0.00000000E+00  0.00000000E+00  0.00000000E+00
  0.00000000E+00  0.00000000E+00  0.00000000E+00
  0.00000000E+00  0.00000000E+00  0.00000000E+00
  0.00000000E+00  0.00000000E+00  0.00000000E+00
  0.00000000E+00  0.00000000E+00  0.00000000E+00
  0.00000000E+00  0.00000000E+00  0.00000000E+00
  0.00000000E+00  0.00000000E+00  0.00000000E+00
  0.00000000E+00  0.00000000E+00  0.00000000E+00
  0.00000000E+00  0.00000000E+00  0.00000000E+00
  0.00000000E+00  0.00000000E+00  0.00000000E+00
  0.00000000E+00  0.00000000E+00  0.00000000E+00
  0.00000000E+00  0.00000000E+00  0.00000000E+00
  0.00000000E+00  0.00000000E+00  0.00000000E+00
  0.00000000E+00  0.00000000E+00  0.00000000E+00
  0.00000000E+00  0.00000000E+00  0.00000000E+00
  0.00000000E+00  0.00000000E+00  0.00000000E+00
  0.00000000E+00  0.00000000E+00  0.00000000E+00
  0.00000000E+00  0.00000000E+00  0.00000000E+00
  0.00000000E+00  0.00000000E+00  0.00000000E+00
  0.00000000E+00  0.00000000E+00  0.00000000E+00
  0.00000000E+00  0.00000000E+00  0.00000000E+00
  0.00000000E+00  0.00000000E+00  0.00000000E+00
  0.00000000E+00  0.00000000E+00  0.00000000E+00
  0.00000000E+00  0.00000000E+00  0.00000000E+00
  0.00000000E+00  0.00000000E+00  0.00000000E+00
  0.00000000E+00  0.00000000E+00  0.00000000E+00
  0.00000000E+00  0.00000000E+00  0.00000000E+00
  0.00000000E+00  0.00000000E+00  0.00000000E+00
  0.00000000E+00  0.00000000E+00  0.00000000E+00
  0.00000000E+00  0.00000000E+00  0.00000000E+00
  0.00000000E+00  0.00000000E+00  0.00000000E+00
  0.00000000E+00  0.00000000E+00  0.00000000E+00
  0.00000000E+00  0.00000000E+00  0.00000000E+00
  0.00000000E+00  0.00000000E+00  0.00000000E+00
  0.00000000E+00  0.00000000E+00  0.00000000E+00
  0.00000000E+00  0.00000000E+00  0.00000000E+00
  0.00000000E+00  0.00000000E+00  0.00000000E+00
  0.00000000E+00  0.00000000E+00  0.00000000E+00
  0.00000000E+00  0.00000000E+00  0.00000000E+00
  0.00000000E+00  0.00000000E+00  0.00000000E+00
  0.00000000E+00  0.00000000E+00  0.00000000E+00
  0.00000000E+00  0.00000000E+00  0.00000000E+00
  0.00000000E+00  0.00000000E+00  0.00000000E+00
  0.00000000E+00  0.00000000E+00  0.00000000E+00
  0.00000000E+00  0.00000000E+00  0.00000000E+00
  0.00000000E+00  0.00000000E+00  0.00000000E+00
  0.00000000E+00  0.00000000E+00  0.00000000E+00
  0.00000000E+00  0.00000000E+00  0.00000000E+00
  0.00000000E+00  0.00000000E+00  0.00000000E+00
  0.00000000E+00  0.00000000E+00  0.00000000E+00
  0.00000000E+00  0.00000000E+00  0.00000000E+00
  0.00000000E+00  0.00000000E+00  0.00000000E+00
  0.00000000E+00  0.00000000E+00  0.00000000E+00
  0.00000000E+00  0.00000000E+00  0.00000000E+00
  0.00000000E+00  0.00000000E+00  0.00000000E+00
  0.00000000E+00  0.00000000E+00  0.00000000E+00
  0.00000000E+00  0.00000000E+00  0.00000000E+00
  0.00000000E+00  0.00000000E+00  0.00000000E+00
  0.00000000E+00  0.00000000E+00  0.00000000E+00
  0.00000000E+00  0.00000000E+00  0.00000000E+00
  0.00000000E+00  0.00000000E+00  0.00000000E+00
  0.00000000E+00  0.00000000E+00  0.00000000E+00
  0.00000000E+00  0.00000000E+00  0.00000000E+00
  0.00000000E+00  0.00000000E+00  0.00000000E+00
