Primitive Cell                          
   1.00000000000000     
    36.6273814004234026    0.0000000000000000    0.0000000000000000
   -18.3136907002117120   31.7202427668683171    0.0000000000000000
     0.0000000000000000    0.0000000000000000   20.0000000000000000
   N    C    H 
    18    72    36
Direct
  0.3766457503543421  0.6883228751771782  0.4998608169919763
  0.3116771248228218  0.6233542496456579  0.4998608169919763
  0.3116771248228218  0.6883228751771782  0.4998608169919763
  0.6233467231598482  0.3116733615799276  0.4997965418236987
  0.6883266384200724  0.3766532768401518  0.4997965418236987
  0.6883266384200724  0.3116733615799276  0.4997965418236987
  0.4898599783424302  0.5101400216575698  0.6187587505459433
  0.5101851700293736  0.4898148299706264  0.6187376582178388
  0.4898599783424302  0.9797199566848462  0.6187587505459433
  0.5101851700293736  0.0203703400587401  0.6187376582178388
  0.0202800433151538  0.5101400216575698  0.6187587505459433
  0.9796296599412599  0.4898148299706264  0.6187376582178388
  0.5224940771020883  0.4775059228979117  0.4368138841511637
  0.4775042555728319  0.5224957444271681  0.4368828754994780
  0.5224940771020883  0.0449881542041766  0.4368138841511637
  0.4775042555728319  0.9550085111456710  0.4368828754994780
  0.9550118457958234  0.4775059228979117  0.4368138841511637
  0.0449914888543290  0.5224957444271681  0.4368828754994780
  0.3540456631325668  0.7080913262651194  0.4999205377170455
  0.3540456631325668  0.6459543368674332  0.4999205377170455
  0.2919086737348806  0.6459543368674332  0.4999205377170455
  0.3773796763819419  0.6226203236180581  0.5004040742540212
  0.4216587239525822  0.6444460714080051  0.5008060485268189
  0.4435770059488817  0.6224793939212248  0.5017700502211184
  0.4217792825835076  0.5782207174164924  0.5024595091440531
  0.3775206060787681  0.5564229940511183  0.5017700502211184
  0.3555539285919949  0.5783412760474178  0.5008060485268189
  0.3773796763819419  0.7547593527638838  0.5004040742540212
  0.4216587239525822  0.7772126525445771  0.5008060485268189
  0.4435770059488817  0.8210976120276570  0.5017700502211184
  0.4217792825835076  0.8435585651670294  0.5024595091440531
  0.3775206060787681  0.8210976120276570  0.5017700502211184
  0.3555539285919949  0.7772126525445771  0.5008060485268189
  0.2452406472361162  0.6226203236180581  0.5004040742540212
  0.2227873474554229  0.6444460714080051  0.5008060485268189
  0.1789023879723430  0.6224793939212248  0.5017700502211184
  0.1564414348329706  0.5782207174164924  0.5024595091440531
  0.1789023879723430  0.5564229940511183  0.5017700502211184
  0.2227873474554229  0.5783412760474178  0.5008060485268189
  0.6459555126165881  0.2919110252331762  0.4998208532611272
  0.6459555126165881  0.3540444873834119  0.4998208532611272
  0.7080889747668238  0.3540444873834119  0.4998208532611272
  0.6226249174854317  0.3773750825145683  0.5002971378914438
  0.5783470676094140  0.3555443359751180  0.5006844616920958
  0.5564291951474019  0.3775101783441102  0.5016078000943835
  0.5782318516579465  0.4217681483420535  0.5022825603581396
  0.6224898216558898  0.4435708048526052  0.5016078000943835
  0.6444556640248820  0.4216529323905860  0.5006844616920958
  0.6226249174854317  0.2452498349708634  0.5002971378914438
  0.5783470676094140  0.2228027316342960  0.5006844616920958
  0.5564291951474019  0.1789190168032917  0.5016078000943835
  0.5782318516579465  0.1564637033159002  0.5022825603581396
  0.6224898216558898  0.1789190168032917  0.5016078000943835
  0.6444556640248820  0.2228027316342960  0.5006844616920958
  0.7547501650291366  0.3773750825145683  0.5002971378914438
  0.7771972683657040  0.3555443359751180  0.5006844616920958
  0.8210809831967083  0.3775101783441102  0.5016078000943835
  0.8435362966840998  0.4217681483420535  0.5022825603581396
  0.8210809831967083  0.4435708048526052  0.5016078000943835
  0.7771972683657040  0.4216529323905860  0.5006844616920958
  0.5211319543773882  0.4788680456226118  0.5585081570025494
  0.5433380584873788  0.4566619415126212  0.5618521364648927
  0.4452058063880244  0.5547941936119756  0.5031262822543638
  0.4566939783296391  0.5433060216703609  0.5619964536600577
  0.4789002608659914  0.5210997391340086  0.5585631683370593
  0.5211319543773882  0.0422639087547694  0.5585081570025494
  0.5433380584873788  0.0866761169747505  0.5618521364648927
  0.4452058063880244  0.8904116127760489  0.5031262822543638
  0.4566939783296391  0.9133879566592782  0.5619964536600577
  0.4789002608659914  0.9578005217319827  0.5585631683370593
  0.9577360912452306  0.4788680456226118  0.5585081570025494
  0.9133238830252495  0.4566619415126212  0.5618521364648927
  0.1095883872239511  0.5547941936119756  0.5031262822543638
  0.0866120433407218  0.5433060216703609  0.5619964536600577
  0.0421994782680173  0.5210997391340086  0.5585631683370593
  0.5548090742284799  0.4451909257715201  0.5029545506337456
  0.5433283203551227  0.4566716796448773  0.4417954200863150
  0.5113514642706534  0.4886485357293466  0.4945447440923019
  0.4886659525149923  0.5113340474850077  0.4945745713510945
  0.4566728068618815  0.5433271931381185  0.4419382588771015
  0.5548090742284799  0.1096181484569456  0.5029545506337456
  0.5433283203551227  0.0866566407102383  0.4417954200863150
  0.5113514642706534  0.0227029285413138  0.4945447440923019
  0.4886659525149923  0.9773319050299989  0.4945745713510945
  0.4566728068618815  0.9133456137237559  0.4419382588771015
  0.8903818515430544  0.4451909257715201  0.5029545506337456
  0.9133433592897617  0.4566716796448773  0.4417954200863150
  0.9772970714586862  0.4886485357293466  0.4945447440923019
  0.0226680949700011  0.5113340474850077  0.4945745713510945
  0.0866543862762441  0.5433271931381185  0.4419382588771015
  0.4779764357364868  0.8383255286367159  0.5021276349529487
  0.4384782585008153  0.7596920524349784  0.5004707161983930
  0.3603490929002291  0.8383255286367159  0.5021276349529487
  0.3212137939341488  0.7596920524349784  0.5004707161983930
  0.2403079475650216  0.6787862060658512  0.5004707161983930
  0.1616744713632841  0.6396509070997709  0.5021276349529487
  0.2403079475650216  0.5615217414991847  0.5004707161983930
  0.1616744713632841  0.5220235642635132  0.5021276349529487
  0.3212137939341488  0.5615217414991847  0.5004707161983930
  0.3603490929002291  0.5220235642635132  0.5021276349529487
  0.4779764357364868  0.6396509070997709  0.5021276349529487
  0.4384782585008153  0.6787862060658512  0.5004707161983930
  0.5220297440081083  0.1616895905894324  0.5019755378281729
  0.5615330978491855  0.2403289998665983  0.5003633113635573
  0.6396598465813312  0.1616895905894324  0.5019755378281729
  0.6787959020174128  0.2403289998665983  0.5003633113635573
  0.7596710001334017  0.3212040979825872  0.5003633113635573
  0.8383104094105676  0.3603401534186688  0.5019755378281729
  0.7596710001334017  0.4384669021508145  0.5003633113635573
  0.8383104094105676  0.4779702559918846  0.5019755378281729
  0.6787959020174128  0.4384669021508145  0.5003633113635573
  0.6396598465813312  0.4779702559918846  0.5019755378281729
  0.5220297440081083  0.3603401534186688  0.5019755378281729
  0.5615330978491855  0.3212040979825872  0.5003633113635573
  0.5508975649553207  0.4491024350446793  0.6108643870444439
  0.4491510768495530  0.5508489231504399  0.6110471630246366
  0.5508975649553207  0.1017951299106485  0.6108643870444439
  0.4491510768495601  0.8983021536990989  0.6110471630246366
  0.8982048700893515  0.4491024350446793  0.6108643870444439
  0.1016978463009011  0.5508489231504399  0.6110471630246366
  0.5521006528618670  0.4478993471381330  0.3946547350576992
  0.4478933558380618  0.5521066441619382  0.3948149156528302
  0.5521006528618670  0.1042013057237554  0.3946547350576992
  0.4478933558380618  0.8957867116761236  0.3948149156528302
  0.8957986942762446  0.4478993471381330  0.3946547350576992
  0.1042132883238764  0.5521066441619382  0.3948149156528302
 
  0.00000000E+00  0.00000000E+00  0.00000000E+00
  0.00000000E+00  0.00000000E+00  0.00000000E+00
  0.00000000E+00  0.00000000E+00  0.00000000E+00
  0.00000000E+00  0.00000000E+00  0.00000000E+00
  0.00000000E+00  0.00000000E+00  0.00000000E+00
  0.00000000E+00  0.00000000E+00  0.00000000E+00
  0.00000000E+00  0.00000000E+00  0.00000000E+00
  0.00000000E+00  0.00000000E+00  0.00000000E+00
  0.00000000E+00  0.00000000E+00  0.00000000E+00
  0.00000000E+00  0.00000000E+00  0.00000000E+00
  0.00000000E+00  0.00000000E+00  0.00000000E+00
  0.00000000E+00  0.00000000E+00  0.00000000E+00
  0.00000000E+00  0.00000000E+00  0.00000000E+00
  0.00000000E+00  0.00000000E+00  0.00000000E+00
  0.00000000E+00  0.00000000E+00  0.00000000E+00
  0.00000000E+00  0.00000000E+00  0.00000000E+00
  0.00000000E+00  0.00000000E+00  0.00000000E+00
  0.00000000E+00  0.00000000E+00  0.00000000E+00
  0.00000000E+00  0.00000000E+00  0.00000000E+00
  0.00000000E+00  0.00000000E+00  0.00000000E+00
  0.00000000E+00  0.00000000E+00  0.00000000E+00
  0.00000000E+00  0.00000000E+00  0.00000000E+00
  0.00000000E+00  0.00000000E+00  0.00000000E+00
  0.00000000E+00  0.00000000E+00  0.00000000E+00
  0.00000000E+00  0.00000000E+00  0.00000000E+00
  0.00000000E+00  0.00000000E+00  0.00000000E+00
  0.00000000E+00  0.00000000E+00  0.00000000E+00
  0.00000000E+00  0.00000000E+00  0.00000000E+00
  0.00000000E+00  0.00000000E+00  0.00000000E+00
  0.00000000E+00  0.00000000E+00  0.00000000E+00
  0.00000000E+00  0.00000000E+00  0.00000000E+00
  0.00000000E+00  0.00000000E+00  0.00000000E+00
  0.00000000E+00  0.00000000E+00  0.00000000E+00
  0.00000000E+00  0.00000000E+00  0.00000000E+00
  0.00000000E+00  0.00000000E+00  0.00000000E+00
  0.00000000E+00  0.00000000E+00  0.00000000E+00
  0.00000000E+00  0.00000000E+00  0.00000000E+00
  0.00000000E+00  0.00000000E+00  0.00000000E+00
  0.00000000E+00  0.00000000E+00  0.00000000E+00
  0.00000000E+00  0.00000000E+00  0.00000000E+00
  0.00000000E+00  0.00000000E+00  0.00000000E+00
  0.00000000E+00  0.00000000E+00  0.00000000E+00
  0.00000000E+00  0.00000000E+00  0.00000000E+00
  0.00000000E+00  0.00000000E+00  0.00000000E+00
  0.00000000E+00  0.00000000E+00  0.00000000E+00
  0.00000000E+00  0.00000000E+00  0.00000000E+00
  0.00000000E+00  0.00000000E+00  0.00000000E+00
  0.00000000E+00  0.00000000E+00  0.00000000E+00
  0.00000000E+00  0.00000000E+00  0.00000000E+00
  0.00000000E+00  0.00000000E+00  0.00000000E+00
  0.00000000E+00  0.00000000E+00  0.00000000E+00
  0.00000000E+00  0.00000000E+00  0.00000000E+00
  0.00000000E+00  0.00000000E+00  0.00000000E+00
  0.00000000E+00  0.00000000E+00  0.00000000E+00
  0.00000000E+00  0.00000000E+00  0.00000000E+00
  0.00000000E+00  0.00000000E+00  0.00000000E+00
  0.00000000E+00  0.00000000E+00  0.00000000E+00
  0.00000000E+00  0.00000000E+00  0.00000000E+00
  0.00000000E+00  0.00000000E+00  0.00000000E+00
  0.00000000E+00  0.00000000E+00  0.00000000E+00
  0.00000000E+00  0.00000000E+00  0.00000000E+00
  0.00000000E+00  0.00000000E+00  0.00000000E+00
  0.00000000E+00  0.00000000E+00  0.00000000E+00
  0.00000000E+00  0.00000000E+00  0.00000000E+00
  0.00000000E+00  0.00000000E+00  0.00000000E+00
  0.00000000E+00  0.00000000E+00  0.00000000E+00
  0.00000000E+00  0.00000000E+00  0.00000000E+00
  0.00000000E+00  0.00000000E+00  0.00000000E+00
  0.00000000E+00  0.00000000E+00  0.00000000E+00
  0.00000000E+00  0.00000000E+00  0.00000000E+00
  0.00000000E+00  0.00000000E+00  0.00000000E+00
  0.00000000E+00  0.00000000E+00  0.00000000E+00
  0.00000000E+00  0.00000000E+00  0.00000000E+00
  0.00000000E+00  0.00000000E+00  0.00000000E+00
  0.00000000E+00  0.00000000E+00  0.00000000E+00
  0.00000000E+00  0.00000000E+00  0.00000000E+00
  0.00000000E+00  0.00000000E+00  0.00000000E+00
  0.00000000E+00  0.00000000E+00  0.00000000E+00
  0.00000000E+00  0.00000000E+00  0.00000000E+00
  0.00000000E+00  0.00000000E+00  0.00000000E+00
  0.00000000E+00  0.00000000E+00  0.00000000E+00
  0.00000000E+00  0.00000000E+00  0.00000000E+00
  0.00000000E+00  0.00000000E+00  0.00000000E+00
  0.00000000E+00  0.00000000E+00  0.00000000E+00
  0.00000000E+00  0.00000000E+00  0.00000000E+00
  0.00000000E+00  0.00000000E+00  0.00000000E+00
  0.00000000E+00  0.00000000E+00  0.00000000E+00
  0.00000000E+00  0.00000000E+00  0.00000000E+00
  0.00000000E+00  0.00000000E+00  0.00000000E+00
  0.00000000E+00  0.00000000E+00  0.00000000E+00
  0.00000000E+00  0.00000000E+00  0.00000000E+00
  0.00000000E+00  0.00000000E+00  0.00000000E+00
  0.00000000E+00  0.00000000E+00  0.00000000E+00
  0.00000000E+00  0.00000000E+00  0.00000000E+00
  0.00000000E+00  0.00000000E+00  0.00000000E+00
  0.00000000E+00  0.00000000E+00  0.00000000E+00
  0.00000000E+00  0.00000000E+00  0.00000000E+00
  0.00000000E+00  0.00000000E+00  0.00000000E+00
  0.00000000E+00  0.00000000E+00  0.00000000E+00
  0.00000000E+00  0.00000000E+00  0.00000000E+00
  0.00000000E+00  0.00000000E+00  0.00000000E+00
  0.00000000E+00  0.00000000E+00  0.00000000E+00
  0.00000000E+00  0.00000000E+00  0.00000000E+00
  0.00000000E+00  0.00000000E+00  0.00000000E+00
  0.00000000E+00  0.00000000E+00  0.00000000E+00
  0.00000000E+00  0.00000000E+00  0.00000000E+00
  0.00000000E+00  0.00000000E+00  0.00000000E+00
  0.00000000E+00  0.00000000E+00  0.00000000E+00
  0.00000000E+00  0.00000000E+00  0.00000000E+00
  0.00000000E+00  0.00000000E+00  0.00000000E+00
  0.00000000E+00  0.00000000E+00  0.00000000E+00
  0.00000000E+00  0.00000000E+00  0.00000000E+00
  0.00000000E+00  0.00000000E+00  0.00000000E+00
  0.00000000E+00  0.00000000E+00  0.00000000E+00
  0.00000000E+00  0.00000000E+00  0.00000000E+00
  0.00000000E+00  0.00000000E+00  0.00000000E+00
  0.00000000E+00  0.00000000E+00  0.00000000E+00
  0.00000000E+00  0.00000000E+00  0.00000000E+00
  0.00000000E+00  0.00000000E+00  0.00000000E+00
  0.00000000E+00  0.00000000E+00  0.00000000E+00
  0.00000000E+00  0.00000000E+00  0.00000000E+00
  0.00000000E+00  0.00000000E+00  0.00000000E+00
  0.00000000E+00  0.00000000E+00  0.00000000E+00
  0.00000000E+00  0.00000000E+00  0.00000000E+00
  0.00000000E+00  0.00000000E+00  0.00000000E+00
  0.00000000E+00  0.00000000E+00  0.00000000E+00
