Primitive Cell                          
   1.00000000000000     
    31.1325078190519449   -0.0742449401591388    0.0000000000000000
   -15.6298546096909856   26.6847320764090021    0.0000000000000000
     0.0000000000000000    0.0000000000000000   20.0000000000000000
   H    O    C    N 
    36    36    90    18
Direct
  0.1274827268942929  0.4903329077393863  0.5135546807508433
  0.1261250423702691  0.6292661594406255  0.5094563615391579
  0.0624951867917289  0.5273869927202171  0.6215804875344304
  0.2518274561954712  0.6902681740440286  0.3960188369336564
  0.2511385085375153  0.5563744983490437  0.3984451536618820
  0.2649373968371549  0.6312326525426357  0.4954107515220443
  0.3887885918835181  0.8913553473739739  0.5140764934298474
  0.5262122031657199  0.8895151599970390  0.5294090178965263
  0.3863748504687905  0.7510709148268191  0.5105837736684222
  0.5242941236026581  0.6284796163257838  0.5244250383289994
  0.3839926450797790  0.4883358991202869  0.5152702499814339
  0.3867203631926799  0.6286775002991263  0.5077192576687182
  0.9004223776813447  0.5202311679890244  0.5246288447956218
  0.8996727713417627  0.3801463802129135  0.5180496082136585
  0.7615343105039187  0.3800808275328578  0.5148747175676078
  0.6379103590758106  0.1187782813960112  0.5208064710325004
  0.4990765948551470  0.1185140135523000  0.5194503301102529
  0.6385935808491894  0.2579999472787975  0.5087859550884843
  0.5007385613075286  0.3803348130070248  0.5164396460657983
  0.6420682087434173  0.5191643252983766  0.5272460020687646
  0.6377690035468930  0.3782659549900771  0.5118775475457014
  0.9698203946817117  0.4830400575733762  0.6257701558333366
  0.4925172122844614  0.9585269323862207  0.6294333085848365
  0.5377585716558428  0.0519841157312086  0.6283051848660932
  0.4940386550850207  0.5323728960269563  0.6271446808874686
  0.5424013641567313  0.4883949097825564  0.6283081529316874
  0.3323435869731881  0.7705437682487783  0.4006457226089637
  0.4676663354063209  0.6915319555403556  0.4098764978540643
  0.4684587664705688  0.7721104122528644  0.4122405782919145
  0.3302950495030288  0.5554380460237596  0.4013027483061293
  0.6995103601688371  0.2393047193463929  0.4070484636134282
  0.7799172322120924  0.3198742782224642  0.4074924859726679
  0.5633445670978432  0.3208840974196718  0.4051723090308386
  0.5629147174657518  0.2404915826196259  0.4056120319850720
  0.7811271841909644  0.4610155457585421  0.4126007071915510
  0.7012658542177164  0.4606442067215326  0.4128173787977403
  0.0910709903396736  0.5124572637449631  0.3775301790310763
  0.0556538806846234  0.5568844562531581  0.3535463545915434
  0.1710247387817958  0.6902980357819857  0.6098878711657321
  0.1994425575026426  0.4635341971600155  0.6400480272451148
  0.2362146703371906  0.7021594729237108  0.6684880424637072
  0.2085524578300308  0.5391325228800667  0.6434518259806126
  0.3476987126902245  0.8060659988603049  0.6473991413600899
  0.2800482260015400  0.8120297846646949  0.6412680947221006
  0.4731899209248880  0.6955701277989874  0.6852212374550746
  0.5417465094593084  0.8063323882289595  0.6652706112994977
  0.5288213280236391  0.6828914639208890  0.6344722280839008
  0.4678171919573089  0.7998112165413787  0.6597527026789578
  0.3220724749420043  0.4756406771588289  0.6192121824783285
  0.3085435360837963  0.5296371784694713  0.6738180755283594
  0.6702477275199499  0.2058759686725153  0.6540574904933507
  0.8483831696036717  0.3231367907778520  0.6319126502223682
  0.7372135725125375  0.1985604634238882  0.6572165181801424
  0.7793981114138333  0.3093202923023597  0.6821288350516355
  0.5400520057221598  0.3048114845980621  0.6788152042792248
  0.4733278355655912  0.1949196091046232  0.6489910228398799
  0.4873978837013127  0.3192995983405780  0.6231608142005243
  0.5479741830386970  0.2029727491191693  0.6520635369470611
  0.7796674434633601  0.4673649526113408  0.6877387404321098
  0.7383165112814112  0.5353412834628202  0.6654464768905015
  0.8491383136083854  0.5237866846926877  0.6382207612088848
  0.6708210755804132  0.4601409809235477  0.6599161061960146
  0.9632691608208432  0.4507775388265074  0.3569282326483929
  0.9295984276788403  0.4959842011768387  0.3856627437850193
  0.4579875076348188  0.9570907437524667  0.3615219290125751
  0.5202682436575046  0.0847689550578892  0.3856280290312952
  0.5023722356705065  0.9219736260516243  0.3869639337747586
  0.5649563048831041  0.0500655823785294  0.3597083490363886
  0.5141659280856814  0.5516440696864109  0.3576803634183534
  0.5813151222368305  0.4903414831213908  0.3852088183127478
  0.4352069399449121  0.5044162271659047  0.3867337582219577
  0.5010122634160865  0.4457399940562112  0.3619063209493660
  0.1219058793871355  0.5572072047794236  0.5113616027448202
  0.0409283303724379  0.5171127388534060  0.5753788999306053
  0.0664500992222017  0.5291084174268406  0.5142376088880454
  0.0379736711602874  0.5160788915993209  0.4556402515545983
  0.1479603738356801  0.5311896987469282  0.5107008974565730
  0.1470230178316498  0.6097626300884400  0.5078124118372003
  0.1989391982206357  0.6368002715885908  0.5018009862167361
  0.2243850372320537  0.6103051236320098  0.4991198176285181
  0.1997524253225293  0.5579447108597719  0.5043962453394784
  0.2328630514984837  0.6922990902735435  0.4988849966418059
  0.2467813363845721  0.7230251589491345  0.5557715662417095
  0.2341340048814260  0.5376936248701583  0.5023998538258141
  0.2478607336955321  0.5207290021534732  0.5588847703599242
  0.2628498603687888  0.7125284102282663  0.4417717108446197
  0.2625145108686340  0.5456925195388749  0.4441576067458755
  0.4590738843742983  0.8167513258927173  0.5204700455727789
  0.4072202789580359  0.7919304035164885  0.5134035153612686
  0.3811331628654244  0.8177180799597181  0.5120369539578888
  0.4079151874371405  0.8700307458132244  0.5162004365859758
  0.4600030667630364  0.8953057167733789  0.5223480013662254
  0.4856841121124660  0.8689478504951609  0.5254317997133526
  0.3789638170999936  0.5554777565018867  0.5113016161946007
  0.4065475419032438  0.6080795644110140  0.5108995548451247
  0.4585759859882401  0.6350427707357653  0.5162608054667785
  0.4837852237699636  0.6085040053141881  0.5207109984890579
  0.4566128913083531  0.5558641464037848  0.5195281739416657
  0.4043524460588941  0.5291736370261120  0.5158309935706527
  0.8271882556924197  0.3736838302863177  0.5164761149047052
  0.8021835415905656  0.4006411992636174  0.5166249361184256
  0.8276650506762593  0.4531706993183278  0.5202212963148014
  0.8796307337963540  0.4793964717365640  0.5227796667067963
  0.9050837515479415  0.4527668593868270  0.5209411809128781
  0.8792312405606992  0.4001498517112694  0.5185757807289946
  0.5659401697624489  0.1917406863772939  0.5140393663956644
  0.6180388904414187  0.2171300251417563  0.5113488311402747
  0.6446655137439095  0.1919442914017111  0.5147397807699932
  0.6182941130424666  0.1396329354631831  0.5190623799011789
  0.5659931096958388  0.1137458783265686  0.5202926934624514
  0.5397013268014845  0.1395237134213829  0.5186991800358669
  0.6462535221996220  0.4515277556734461  0.5201367531901866
  0.6182566627581565  0.3991963469643025  0.5143151754977424
  0.5661040627554144  0.3728305646360397  0.5137687694423363
  0.5413212628598600  0.3998378119565515  0.5173192976886725
  0.5690928077534920  0.4523568342058653  0.5217380649327339
  0.6213706026068806  0.4783173711825555  0.5241999672032591
  0.9890455072426647  0.4928174972313855  0.5777358927143297
  0.5268348116115575  0.0310674310369023  0.5814427201816699
  0.5019844910205720  0.9787731564485895  0.5820627742011979
  0.5300217168943178  0.4959331992425717  0.5810092944064067
  0.5023811120956765  0.5199760992984750  0.5804131251096649
  0.3262297036392212  0.7837397732659426  0.5048806065872569
  0.2929995173713493  0.7676405066303502  0.5588595239458769
  0.4790757224511566  0.7820020368503009  0.5185914510203418
  0.4801819348362528  0.6905389192306473  0.5154517866964312
  0.4921948138348071  0.7193007809184309  0.5740151006083352
  0.4909844313276963  0.7639732791169180  0.5756431388407321
  0.3241774813810210  0.5348042027204940  0.5050014356912911
  0.2918116482202819  0.5187026827929060  0.5600071633943529
  0.7929257442336421  0.3182138382711130  0.5128085386071746
  0.6997392867387120  0.2265247543655136  0.5127139344809137
  0.7295605463905517  0.2431894681942026  0.5701654432179453
  0.7756452779889784  0.2880223164617277  0.5701047963461860
  0.5454965130648901  0.2260460144452097  0.5102360448117622
  0.5441027974520267  0.3173742802030972  0.5090816735991766
  0.5283102592237299  0.2860898055482437  0.5654504975922663
  0.5296054266478620  0.2414636507043753  0.5661268123056331
  0.7011148503066096  0.4717940839228305  0.5189502286860659
  0.7937502461337331  0.4741122218009508  0.5182713550923168
  0.7765034742176198  0.4860288883371240  0.5761272418170620
  0.7306108763668107  0.4842362382885099  0.5765609976984791
  0.9605730998899702  0.4804258330172075  0.5190702620685173
  0.9861388466679841  0.4929103733076374  0.4580431815149737
  0.5381930813156686  0.0578854126426833  0.5212212482222256
  0.4883278199058836  0.9511582151146953  0.5224215706861770
  0.5004538058225165  0.9779853344080180  0.4622682339033446
  0.5242171793423225  0.0302538515788271  0.4616657148001195
  0.5419523090524905  0.4804617290706545  0.5214987356106064
  0.4844794623269095  0.5284797356676521  0.5204667529906501
  0.4961757326596441  0.5127480582210708  0.4610558279495862
  0.5251022213742615  0.4900272721930676  0.4614940195527026
  0.3081965812988230  0.7573482889821506  0.4444888771252735
  0.4753504526769703  0.7573606095473551  0.4579515891428798
  0.4753789127356427  0.7124408866425895  0.4565464968034263
  0.3066389794872038  0.5447170775191381  0.4455959796337439
  0.7664059584629683  0.2977776475609275  0.4532440960035942
  0.7210950627792414  0.2527732415193853  0.4530990658935394
  0.5529488510601439  0.2531835939353400  0.4507608492796109
  0.5527113617928663  0.2980073097357803  0.4503691936627376
  0.7225225939643138  0.4680035338929329  0.4589819598688862
  0.7675106587380469  0.4686602752896647  0.4587610937626820
  0.0634432130276323  0.5292521120630624  0.3900118734115097
  0.2156605945831629  0.7039875507059747  0.6165863186311071
  0.2163883837669474  0.5069736756515439  0.6196796794474224
  0.3081303388298693  0.7973193649229202  0.6215493264205492
  0.4988037085967250  0.6979200168335709  0.6366055959406154
  0.5005719390335344  0.7919163173545343  0.6393327388841925
  0.3084237760427087  0.5067934219637422  0.6230253072022833
  0.7108104839522369  0.2138508518014035  0.6328754451913738
  0.8032124114712644  0.3080463868233991  0.6334628829116014
  0.5175281225718109  0.3045430154896280  0.6277986287670743
  0.5161932272106853  0.2109901121159226  0.6280611874186732
  0.8038356435427261  0.4932054997929498  0.6394208125135634
  0.7117348129161698  0.4936597945789245  0.6396878240703785
  0.9575344540287531  0.4790682891211304  0.3948681713077136
  0.4860317694690153  0.9502477191444996  0.3981717481268205
  0.5372455479106080  0.0570524359713360  0.3968413525966028
  0.4804316101075798  0.5234705436909195  0.3963413289713031
  0.5368541765928256  0.4743297425344153  0.3974838380536667
 
  0.00000000E+00  0.00000000E+00  0.00000000E+00
  0.00000000E+00  0.00000000E+00  0.00000000E+00
  0.00000000E+00  0.00000000E+00  0.00000000E+00
  0.00000000E+00  0.00000000E+00  0.00000000E+00
  0.00000000E+00  0.00000000E+00  0.00000000E+00
  0.00000000E+00  0.00000000E+00  0.00000000E+00
  0.00000000E+00  0.00000000E+00  0.00000000E+00
  0.00000000E+00  0.00000000E+00  0.00000000E+00
  0.00000000E+00  0.00000000E+00  0.00000000E+00
  0.00000000E+00  0.00000000E+00  0.00000000E+00
  0.00000000E+00  0.00000000E+00  0.00000000E+00
  0.00000000E+00  0.00000000E+00  0.00000000E+00
  0.00000000E+00  0.00000000E+00  0.00000000E+00
  0.00000000E+00  0.00000000E+00  0.00000000E+00
  0.00000000E+00  0.00000000E+00  0.00000000E+00
  0.00000000E+00  0.00000000E+00  0.00000000E+00
  0.00000000E+00  0.00000000E+00  0.00000000E+00
  0.00000000E+00  0.00000000E+00  0.00000000E+00
  0.00000000E+00  0.00000000E+00  0.00000000E+00
  0.00000000E+00  0.00000000E+00  0.00000000E+00
  0.00000000E+00  0.00000000E+00  0.00000000E+00
  0.00000000E+00  0.00000000E+00  0.00000000E+00
  0.00000000E+00  0.00000000E+00  0.00000000E+00
  0.00000000E+00  0.00000000E+00  0.00000000E+00
  0.00000000E+00  0.00000000E+00  0.00000000E+00
  0.00000000E+00  0.00000000E+00  0.00000000E+00
  0.00000000E+00  0.00000000E+00  0.00000000E+00
  0.00000000E+00  0.00000000E+00  0.00000000E+00
  0.00000000E+00  0.00000000E+00  0.00000000E+00
  0.00000000E+00  0.00000000E+00  0.00000000E+00
  0.00000000E+00  0.00000000E+00  0.00000000E+00
  0.00000000E+00  0.00000000E+00  0.00000000E+00
  0.00000000E+00  0.00000000E+00  0.00000000E+00
  0.00000000E+00  0.00000000E+00  0.00000000E+00
  0.00000000E+00  0.00000000E+00  0.00000000E+00
  0.00000000E+00  0.00000000E+00  0.00000000E+00
  0.00000000E+00  0.00000000E+00  0.00000000E+00
  0.00000000E+00  0.00000000E+00  0.00000000E+00
  0.00000000E+00  0.00000000E+00  0.00000000E+00
  0.00000000E+00  0.00000000E+00  0.00000000E+00
  0.00000000E+00  0.00000000E+00  0.00000000E+00
  0.00000000E+00  0.00000000E+00  0.00000000E+00
  0.00000000E+00  0.00000000E+00  0.00000000E+00
  0.00000000E+00  0.00000000E+00  0.00000000E+00
  0.00000000E+00  0.00000000E+00  0.00000000E+00
  0.00000000E+00  0.00000000E+00  0.00000000E+00
  0.00000000E+00  0.00000000E+00  0.00000000E+00
  0.00000000E+00  0.00000000E+00  0.00000000E+00
  0.00000000E+00  0.00000000E+00  0.00000000E+00
  0.00000000E+00  0.00000000E+00  0.00000000E+00
  0.00000000E+00  0.00000000E+00  0.00000000E+00
  0.00000000E+00  0.00000000E+00  0.00000000E+00
  0.00000000E+00  0.00000000E+00  0.00000000E+00
  0.00000000E+00  0.00000000E+00  0.00000000E+00
  0.00000000E+00  0.00000000E+00  0.00000000E+00
  0.00000000E+00  0.00000000E+00  0.00000000E+00
  0.00000000E+00  0.00000000E+00  0.00000000E+00
  0.00000000E+00  0.00000000E+00  0.00000000E+00
  0.00000000E+00  0.00000000E+00  0.00000000E+00
  0.00000000E+00  0.00000000E+00  0.00000000E+00
  0.00000000E+00  0.00000000E+00  0.00000000E+00
  0.00000000E+00  0.00000000E+00  0.00000000E+00
  0.00000000E+00  0.00000000E+00  0.00000000E+00
  0.00000000E+00  0.00000000E+00  0.00000000E+00
  0.00000000E+00  0.00000000E+00  0.00000000E+00
  0.00000000E+00  0.00000000E+00  0.00000000E+00
  0.00000000E+00  0.00000000E+00  0.00000000E+00
  0.00000000E+00  0.00000000E+00  0.00000000E+00
  0.00000000E+00  0.00000000E+00  0.00000000E+00
  0.00000000E+00  0.00000000E+00  0.00000000E+00
  0.00000000E+00  0.00000000E+00  0.00000000E+00
  0.00000000E+00  0.00000000E+00  0.00000000E+00
  0.00000000E+00  0.00000000E+00  0.00000000E+00
  0.00000000E+00  0.00000000E+00  0.00000000E+00
  0.00000000E+00  0.00000000E+00  0.00000000E+00
  0.00000000E+00  0.00000000E+00  0.00000000E+00
  0.00000000E+00  0.00000000E+00  0.00000000E+00
  0.00000000E+00  0.00000000E+00  0.00000000E+00
  0.00000000E+00  0.00000000E+00  0.00000000E+00
  0.00000000E+00  0.00000000E+00  0.00000000E+00
  0.00000000E+00  0.00000000E+00  0.00000000E+00
  0.00000000E+00  0.00000000E+00  0.00000000E+00
  0.00000000E+00  0.00000000E+00  0.00000000E+00
  0.00000000E+00  0.00000000E+00  0.00000000E+00
  0.00000000E+00  0.00000000E+00  0.00000000E+00
  0.00000000E+00  0.00000000E+00  0.00000000E+00
  0.00000000E+00  0.00000000E+00  0.00000000E+00
  0.00000000E+00  0.00000000E+00  0.00000000E+00
  0.00000000E+00  0.00000000E+00  0.00000000E+00
  0.00000000E+00  0.00000000E+00  0.00000000E+00
  0.00000000E+00  0.00000000E+00  0.00000000E+00
  0.00000000E+00  0.00000000E+00  0.00000000E+00
  0.00000000E+00  0.00000000E+00  0.00000000E+00
  0.00000000E+00  0.00000000E+00  0.00000000E+00
  0.00000000E+00  0.00000000E+00  0.00000000E+00
  0.00000000E+00  0.00000000E+00  0.00000000E+00
  0.00000000E+00  0.00000000E+00  0.00000000E+00
  0.00000000E+00  0.00000000E+00  0.00000000E+00
  0.00000000E+00  0.00000000E+00  0.00000000E+00
  0.00000000E+00  0.00000000E+00  0.00000000E+00
  0.00000000E+00  0.00000000E+00  0.00000000E+00
  0.00000000E+00  0.00000000E+00  0.00000000E+00
  0.00000000E+00  0.00000000E+00  0.00000000E+00
  0.00000000E+00  0.00000000E+00  0.00000000E+00
  0.00000000E+00  0.00000000E+00  0.00000000E+00
  0.00000000E+00  0.00000000E+00  0.00000000E+00
  0.00000000E+00  0.00000000E+00  0.00000000E+00
  0.00000000E+00  0.00000000E+00  0.00000000E+00
  0.00000000E+00  0.00000000E+00  0.00000000E+00
  0.00000000E+00  0.00000000E+00  0.00000000E+00
  0.00000000E+00  0.00000000E+00  0.00000000E+00
  0.00000000E+00  0.00000000E+00  0.00000000E+00
  0.00000000E+00  0.00000000E+00  0.00000000E+00
  0.00000000E+00  0.00000000E+00  0.00000000E+00
  0.00000000E+00  0.00000000E+00  0.00000000E+00
  0.00000000E+00  0.00000000E+00  0.00000000E+00
  0.00000000E+00  0.00000000E+00  0.00000000E+00
  0.00000000E+00  0.00000000E+00  0.00000000E+00
  0.00000000E+00  0.00000000E+00  0.00000000E+00
  0.00000000E+00  0.00000000E+00  0.00000000E+00
  0.00000000E+00  0.00000000E+00  0.00000000E+00
  0.00000000E+00  0.00000000E+00  0.00000000E+00
  0.00000000E+00  0.00000000E+00  0.00000000E+00
  0.00000000E+00  0.00000000E+00  0.00000000E+00
  0.00000000E+00  0.00000000E+00  0.00000000E+00
  0.00000000E+00  0.00000000E+00  0.00000000E+00
  0.00000000E+00  0.00000000E+00  0.00000000E+00
  0.00000000E+00  0.00000000E+00  0.00000000E+00
  0.00000000E+00  0.00000000E+00  0.00000000E+00
  0.00000000E+00  0.00000000E+00  0.00000000E+00
  0.00000000E+00  0.00000000E+00  0.00000000E+00
  0.00000000E+00  0.00000000E+00  0.00000000E+00
  0.00000000E+00  0.00000000E+00  0.00000000E+00
  0.00000000E+00  0.00000000E+00  0.00000000E+00
  0.00000000E+00  0.00000000E+00  0.00000000E+00
  0.00000000E+00  0.00000000E+00  0.00000000E+00
  0.00000000E+00  0.00000000E+00  0.00000000E+00
  0.00000000E+00  0.00000000E+00  0.00000000E+00
  0.00000000E+00  0.00000000E+00  0.00000000E+00
  0.00000000E+00  0.00000000E+00  0.00000000E+00
  0.00000000E+00  0.00000000E+00  0.00000000E+00
  0.00000000E+00  0.00000000E+00  0.00000000E+00
  0.00000000E+00  0.00000000E+00  0.00000000E+00
  0.00000000E+00  0.00000000E+00  0.00000000E+00
  0.00000000E+00  0.00000000E+00  0.00000000E+00
  0.00000000E+00  0.00000000E+00  0.00000000E+00
  0.00000000E+00  0.00000000E+00  0.00000000E+00
  0.00000000E+00  0.00000000E+00  0.00000000E+00
  0.00000000E+00  0.00000000E+00  0.00000000E+00
  0.00000000E+00  0.00000000E+00  0.00000000E+00
  0.00000000E+00  0.00000000E+00  0.00000000E+00
  0.00000000E+00  0.00000000E+00  0.00000000E+00
  0.00000000E+00  0.00000000E+00  0.00000000E+00
  0.00000000E+00  0.00000000E+00  0.00000000E+00
  0.00000000E+00  0.00000000E+00  0.00000000E+00
  0.00000000E+00  0.00000000E+00  0.00000000E+00
  0.00000000E+00  0.00000000E+00  0.00000000E+00
  0.00000000E+00  0.00000000E+00  0.00000000E+00
  0.00000000E+00  0.00000000E+00  0.00000000E+00
  0.00000000E+00  0.00000000E+00  0.00000000E+00
  0.00000000E+00  0.00000000E+00  0.00000000E+00
  0.00000000E+00  0.00000000E+00  0.00000000E+00
  0.00000000E+00  0.00000000E+00  0.00000000E+00
  0.00000000E+00  0.00000000E+00  0.00000000E+00
  0.00000000E+00  0.00000000E+00  0.00000000E+00
  0.00000000E+00  0.00000000E+00  0.00000000E+00
  0.00000000E+00  0.00000000E+00  0.00000000E+00
  0.00000000E+00  0.00000000E+00  0.00000000E+00
  0.00000000E+00  0.00000000E+00  0.00000000E+00
  0.00000000E+00  0.00000000E+00  0.00000000E+00
  0.00000000E+00  0.00000000E+00  0.00000000E+00
  0.00000000E+00  0.00000000E+00  0.00000000E+00
  0.00000000E+00  0.00000000E+00  0.00000000E+00
  0.00000000E+00  0.00000000E+00  0.00000000E+00
  0.00000000E+00  0.00000000E+00  0.00000000E+00
  0.00000000E+00  0.00000000E+00  0.00000000E+00
  0.00000000E+00  0.00000000E+00  0.00000000E+00
  0.00000000E+00  0.00000000E+00  0.00000000E+00
  0.00000000E+00  0.00000000E+00  0.00000000E+00
  0.00000000E+00  0.00000000E+00  0.00000000E+00
