Primitive Cell                          
   1.00000000000000     
    23.1028480608691353   -0.0013787683528240    0.0000000000000000
   -11.5526190076961726   20.0075753125737279    0.0000000000000000
     0.0000000000000000    0.0000000000000000   20.0000000000000000
   O    N    H    C 
     6    18    24    66
Direct
  0.6415096290314466  0.2649130797116399  0.5137179403437244
  0.6288457765669051  0.3876306652689223  0.5129313724923392
  0.7648325785542340  0.4009076616362393  0.5132365647954984
  0.3817320642416817  0.7706820707575872  0.5129570150663483
  0.3952000603352914  0.6481030629427096  0.5138999545218894
  0.2590443076615898  0.6347385417772244  0.5133143211728637
  0.4990677167686073  0.2308127612663498  0.5701564875458089
  0.6930546238367370  0.1705971106335227  0.6839504031449337
  0.7456956627926488  0.2238997817819666  0.4537333574264011
  0.4794704972289523  0.3344093257075471  0.6822006596241152
  0.7980971387638718  0.2929654514789917  0.5715660105885831
  0.4848607604382309  0.2841788471821047  0.4517879599189882
  0.7373541667066874  0.5299731422883340  0.5698711310745281
  0.8610023671151623  0.5501500357627549  0.6818438422219728
  0.2874593486776718  0.5066898787735070  0.5711435902353728
  0.1654840257159833  0.4880411247229830  0.6842636301857112
  0.8054808296942113  0.5449119577589485  0.4516543105910102
  0.2181113788602360  0.4896099161093019  0.4533959787410922
  0.5239400387452164  0.8048955730063625  0.5706857735731958
  0.5453751467741270  0.7037292990550910  0.6839825996243931
  0.2249764965601031  0.7429657395752827  0.5699681467675362
  0.3284092452120433  0.8666265663011501  0.6819506717202160
  0.5394396009593976  0.7516905968503664  0.4528736840697363
  0.2779912694688491  0.8109965842297910  0.4517029861337889
  0.4436319688828334  0.0676719500121052  0.5065254408021715
  0.6296287358441646  0.0650325193627737  0.5025400699459084
  0.4704725364622817  0.1969944889909669  0.4060291406202623
  0.6144317393695573  0.2865327017042674  0.5176907568248907
  0.6775486437765394  0.4146042537616736  0.5170479860521198
  0.7431161749374269  0.3522591726672815  0.5178979375111652
  0.9617926395739147  0.3995626338450080  0.5075138431283577
  0.4412183597590840  0.4001189534534930  0.5016037480090034
  0.8333050391010985  0.2960392331251782  0.4080403320045463
  0.3942567156473444  0.4500991879776848  0.5066479868514762
  0.0591130625285103  0.4466944065518916  0.5023313839533401
  0.7327470512542291  0.5593658683411675  0.4058492616744189
  0.2903759345191474  0.4744117863094743  0.4076568864433270
  0.4088094502975252  0.7490916447663167  0.5173163995032795
  0.5796823653301786  0.9678733151768668  0.5070746795705148
  0.3465211010035603  0.6210057537556182  0.5181399473914965
  0.6301393643679987  0.5858279878656134  0.5064666898088603
  0.2806221534089914  0.6834405206557292  0.5172328986689010
  0.0618766529768919  0.6354029304213142  0.5062572787932780
  0.3937699950853997  0.9706108914234122  0.5013754093584026
  0.5830557566153232  0.6359666063139997  0.5025536504066679
  0.9649995868691406  0.5884161747133803  0.5009146129411093
  0.5541934574827110  0.8388772009324583  0.4068230818863725
  0.1908680271920318  0.7381357238466890  0.4059496237576425
  0.5327386816330701  0.1620590152785937  0.5093873400840394
  0.4979919064221292  0.0924575717584517  0.5060839141922244
  0.5005318556042013  0.2039048586815611  0.5113435554618633
  0.7110078146339234  0.2021217424339810  0.5106056914447379
  0.7437944234981373  0.2317325293357015  0.5717228250410145
  0.7169145098633649  0.1994743698523180  0.6343755142117118
  0.5306898762913406  0.0548849275843466  0.5039687321459709
  0.6010866860857007  0.0908570995832108  0.5042649844208285
  0.6371119340992450  0.1602677367724326  0.5078777299063901
  0.6030586498774966  0.1965111230244645  0.5107927629249929
  0.4825482390562357  0.2253180188146757  0.4526739456842748
  0.8675019309008505  0.3945785064801868  0.5098281831321287
  0.9371148117798782  0.4292319063262724  0.5064855629777867
  0.4965551717597094  0.3183751125246488  0.5088813055385302
  0.4920921382444803  0.2850834392357413  0.5699984561718168
  0.4854387896285530  0.3113021043155015  0.6325438564929513
  0.8255204704260422  0.3205683736555329  0.5126461296653062
  0.4955877441843057  0.4285305393201710  0.5034320485325097
  0.5287876716175219  0.3923198513782680  0.5066369235883741
  0.5990754885912750  0.4262242060753536  0.5098839075838626
  0.8332268749374379  0.4306336971021949  0.5103688731775762
  0.8045810224104031  0.2804249337463887  0.4544784112354776
  0.6351254349356665  0.4965479273769020  0.5088041375693777
  0.6004390021322266  0.5314752784608530  0.5057898710149829
  0.4238814994864626  0.5044564031315559  0.5061880242357759
  0.3891078258329728  0.5392677914398689  0.5096335641619021
  0.8278057002110089  0.5330235959507732  0.5087509321659454
  0.7091812522379826  0.5286868856914140  0.5109790101824743
  0.7986918323566243  0.5371608057209301  0.5698199423577890
  0.8316118796740639  0.5439151575021128  0.6323410121818256
  0.1963128473546973  0.5024392410757628  0.5103337986123648
  0.3150701591722651  0.5070054914759794  0.5121949094739549
  0.2260634426905170  0.4993744916701601  0.5714155694797896
  0.1939301076972839  0.4935591759291071  0.6342629642783564
  0.5301733881736084  0.4989341865665153  0.5036747217229234
  0.4941496574146882  0.5370862544395365  0.5039805858283728
  0.9748349061760848  0.4994778927201509  0.5036761620536296
  0.9390166837082887  0.5340633708365132  0.5031634271223595
  0.8696083595464188  0.5008913381225213  0.5066422911370339
  0.0490370804595699  0.5355377386037006  0.5037235751775455
  0.1544007991234650  0.5344372434256783  0.5076298829164401
  0.0849750593185092  0.5010720599173624  0.5040369092408028
  0.7488199344098945  0.5470386448091702  0.4524577664672336
  0.2748017123323550  0.4875416740157448  0.4540920951200249
  0.5253299614073228  0.9431083301333700  0.5061606945896386
  0.4905345044094886  0.8734869465773656  0.5092103560453438
  0.0866434647470484  0.6058159535261609  0.5057878650146677
  0.1562401791104406  0.6406524909376756  0.5090512088208357
  0.5274120957284154  0.7175297999333523  0.5100466648022532
  0.5227938950347166  0.8316990281809780  0.5117133240861023
  0.5313554136262937  0.7508942421992302  0.5709928711954362
  0.5384819066233888  0.7255234122173349  0.6338564547122871
  0.3122471634703246  0.8334145241622792  0.5087725878338958
  0.1980466048179821  0.7147093768960815  0.5111067220368071
  0.2790766555772777  0.8043260380373667  0.5698870448582483
  0.3052869396582523  0.8372798394738794  0.6324147359342689
  0.4926637854410174  0.9807030044539999  0.5037477001254516
  0.4202066591185272  0.8390698052175409  0.5099985457695126
  0.3861779108447934  0.8753217108551468  0.5065857329461139
  0.4222632487661642  0.9447448302300501  0.5033348898885706
  0.4250734896025889  0.6095904660686742  0.5109233099471950
  0.4953712972401334  0.6435953651551571  0.5078077565481109
  0.5286796759531214  0.6074928753946764  0.5042791148581998
  0.1906472269556900  0.6047536520147645  0.5104655704055858
  0.5415419692143502  0.8104564765083992  0.4534262419587307
  0.2192444536669242  0.7542898391112018  0.4525554369700160
 
  0.00000000E+00  0.00000000E+00  0.00000000E+00
  0.00000000E+00  0.00000000E+00  0.00000000E+00
  0.00000000E+00  0.00000000E+00  0.00000000E+00
  0.00000000E+00  0.00000000E+00  0.00000000E+00
  0.00000000E+00  0.00000000E+00  0.00000000E+00
  0.00000000E+00  0.00000000E+00  0.00000000E+00
  0.00000000E+00  0.00000000E+00  0.00000000E+00
  0.00000000E+00  0.00000000E+00  0.00000000E+00
  0.00000000E+00  0.00000000E+00  0.00000000E+00
  0.00000000E+00  0.00000000E+00  0.00000000E+00
  0.00000000E+00  0.00000000E+00  0.00000000E+00
  0.00000000E+00  0.00000000E+00  0.00000000E+00
  0.00000000E+00  0.00000000E+00  0.00000000E+00
  0.00000000E+00  0.00000000E+00  0.00000000E+00
  0.00000000E+00  0.00000000E+00  0.00000000E+00
  0.00000000E+00  0.00000000E+00  0.00000000E+00
  0.00000000E+00  0.00000000E+00  0.00000000E+00
  0.00000000E+00  0.00000000E+00  0.00000000E+00
  0.00000000E+00  0.00000000E+00  0.00000000E+00
  0.00000000E+00  0.00000000E+00  0.00000000E+00
  0.00000000E+00  0.00000000E+00  0.00000000E+00
  0.00000000E+00  0.00000000E+00  0.00000000E+00
  0.00000000E+00  0.00000000E+00  0.00000000E+00
  0.00000000E+00  0.00000000E+00  0.00000000E+00
  0.00000000E+00  0.00000000E+00  0.00000000E+00
  0.00000000E+00  0.00000000E+00  0.00000000E+00
  0.00000000E+00  0.00000000E+00  0.00000000E+00
  0.00000000E+00  0.00000000E+00  0.00000000E+00
  0.00000000E+00  0.00000000E+00  0.00000000E+00
  0.00000000E+00  0.00000000E+00  0.00000000E+00
  0.00000000E+00  0.00000000E+00  0.00000000E+00
  0.00000000E+00  0.00000000E+00  0.00000000E+00
  0.00000000E+00  0.00000000E+00  0.00000000E+00
  0.00000000E+00  0.00000000E+00  0.00000000E+00
  0.00000000E+00  0.00000000E+00  0.00000000E+00
  0.00000000E+00  0.00000000E+00  0.00000000E+00
  0.00000000E+00  0.00000000E+00  0.00000000E+00
  0.00000000E+00  0.00000000E+00  0.00000000E+00
  0.00000000E+00  0.00000000E+00  0.00000000E+00
  0.00000000E+00  0.00000000E+00  0.00000000E+00
  0.00000000E+00  0.00000000E+00  0.00000000E+00
  0.00000000E+00  0.00000000E+00  0.00000000E+00
  0.00000000E+00  0.00000000E+00  0.00000000E+00
  0.00000000E+00  0.00000000E+00  0.00000000E+00
  0.00000000E+00  0.00000000E+00  0.00000000E+00
  0.00000000E+00  0.00000000E+00  0.00000000E+00
  0.00000000E+00  0.00000000E+00  0.00000000E+00
  0.00000000E+00  0.00000000E+00  0.00000000E+00
  0.00000000E+00  0.00000000E+00  0.00000000E+00
  0.00000000E+00  0.00000000E+00  0.00000000E+00
  0.00000000E+00  0.00000000E+00  0.00000000E+00
  0.00000000E+00  0.00000000E+00  0.00000000E+00
  0.00000000E+00  0.00000000E+00  0.00000000E+00
  0.00000000E+00  0.00000000E+00  0.00000000E+00
  0.00000000E+00  0.00000000E+00  0.00000000E+00
  0.00000000E+00  0.00000000E+00  0.00000000E+00
  0.00000000E+00  0.00000000E+00  0.00000000E+00
  0.00000000E+00  0.00000000E+00  0.00000000E+00
  0.00000000E+00  0.00000000E+00  0.00000000E+00
  0.00000000E+00  0.00000000E+00  0.00000000E+00
  0.00000000E+00  0.00000000E+00  0.00000000E+00
  0.00000000E+00  0.00000000E+00  0.00000000E+00
  0.00000000E+00  0.00000000E+00  0.00000000E+00
  0.00000000E+00  0.00000000E+00  0.00000000E+00
  0.00000000E+00  0.00000000E+00  0.00000000E+00
  0.00000000E+00  0.00000000E+00  0.00000000E+00
  0.00000000E+00  0.00000000E+00  0.00000000E+00
  0.00000000E+00  0.00000000E+00  0.00000000E+00
  0.00000000E+00  0.00000000E+00  0.00000000E+00
  0.00000000E+00  0.00000000E+00  0.00000000E+00
  0.00000000E+00  0.00000000E+00  0.00000000E+00
  0.00000000E+00  0.00000000E+00  0.00000000E+00
  0.00000000E+00  0.00000000E+00  0.00000000E+00
  0.00000000E+00  0.00000000E+00  0.00000000E+00
  0.00000000E+00  0.00000000E+00  0.00000000E+00
  0.00000000E+00  0.00000000E+00  0.00000000E+00
  0.00000000E+00  0.00000000E+00  0.00000000E+00
  0.00000000E+00  0.00000000E+00  0.00000000E+00
  0.00000000E+00  0.00000000E+00  0.00000000E+00
  0.00000000E+00  0.00000000E+00  0.00000000E+00
  0.00000000E+00  0.00000000E+00  0.00000000E+00
  0.00000000E+00  0.00000000E+00  0.00000000E+00
  0.00000000E+00  0.00000000E+00  0.00000000E+00
  0.00000000E+00  0.00000000E+00  0.00000000E+00
  0.00000000E+00  0.00000000E+00  0.00000000E+00
  0.00000000E+00  0.00000000E+00  0.00000000E+00
  0.00000000E+00  0.00000000E+00  0.00000000E+00
  0.00000000E+00  0.00000000E+00  0.00000000E+00
  0.00000000E+00  0.00000000E+00  0.00000000E+00
  0.00000000E+00  0.00000000E+00  0.00000000E+00
  0.00000000E+00  0.00000000E+00  0.00000000E+00
  0.00000000E+00  0.00000000E+00  0.00000000E+00
  0.00000000E+00  0.00000000E+00  0.00000000E+00
  0.00000000E+00  0.00000000E+00  0.00000000E+00
  0.00000000E+00  0.00000000E+00  0.00000000E+00
  0.00000000E+00  0.00000000E+00  0.00000000E+00
  0.00000000E+00  0.00000000E+00  0.00000000E+00
  0.00000000E+00  0.00000000E+00  0.00000000E+00
  0.00000000E+00  0.00000000E+00  0.00000000E+00
  0.00000000E+00  0.00000000E+00  0.00000000E+00
  0.00000000E+00  0.00000000E+00  0.00000000E+00
  0.00000000E+00  0.00000000E+00  0.00000000E+00
  0.00000000E+00  0.00000000E+00  0.00000000E+00
  0.00000000E+00  0.00000000E+00  0.00000000E+00
  0.00000000E+00  0.00000000E+00  0.00000000E+00
  0.00000000E+00  0.00000000E+00  0.00000000E+00
  0.00000000E+00  0.00000000E+00  0.00000000E+00
  0.00000000E+00  0.00000000E+00  0.00000000E+00
  0.00000000E+00  0.00000000E+00  0.00000000E+00
  0.00000000E+00  0.00000000E+00  0.00000000E+00
  0.00000000E+00  0.00000000E+00  0.00000000E+00
  0.00000000E+00  0.00000000E+00  0.00000000E+00
  0.00000000E+00  0.00000000E+00  0.00000000E+00
  0.00000000E+00  0.00000000E+00  0.00000000E+00
