Primitive Cell                          
   1.00000000000000     
    14.6954679696404682    0.0083854374326363    0.0000000000000000
    -7.3404770716759122   12.7390220789933437    0.0000000000000000
     0.0000000000000000    0.0000000000000000   20.0000000000000000
   N    C    H 
     9    24    15
Direct
  0.9158184353797054  0.4578783925466539  0.4247516562560065
  0.5054132294029969  0.0474985033164401  0.4250898508932153
  0.4989613418257122  0.4586468942991431  0.4255168396839082
  0.4329485960843513  0.8923274373347780  0.3649610475487535
  0.4171945103941184  0.5314349155507756  0.3645059521881677
  0.0701680800900277  0.5289705446957669  0.3639407549231208
  0.4426649083453356  0.9352163928924853  0.5454148360889377
  0.4475713343242447  0.5215438805641455  0.5451130661314991
  0.0297260973639339  0.5247771590937944  0.5442585406155942
  0.7502298715930067  0.3792219972228565  0.4843748952920777
  0.6944528965970349  0.4334159840798009  0.4855433536660172
  0.6954064947183554  0.2694051347264477  0.4835238222747407
  0.8672232108124049  0.4381521728631554  0.4842594559416042
  0.9242508541785384  0.4719979377404329  0.5439481521707421
  0.5845743978338618  0.3785930083862041  0.4852197389121287
  0.5304984599406737  0.2687893035129107  0.4848680996260342
  0.5855372010177291  0.2138370302005939  0.4840688844052465
  0.5272739033566367  0.0968867487941267  0.4843943368204364
  0.5257273704585685  0.4368876388941771  0.4851527443441412
  0.4956710944217804  0.0406262627432668  0.5444636319366083
  0.5001228723643578  0.4684974771333827  0.5448715127037573
  0.1963043897100007  0.6027739466571589  0.4853387388189461
  0.2517047142797040  0.5480987955124732  0.4842509909726687
  0.3617029630572830  0.6022350030678680  0.4857026841823995
  0.4163429987541036  0.7121824662581560  0.4862130831434186
  0.3620485462953624  0.7680281117776389  0.4867217644817785
  0.2520211458684258  0.7127895962575295  0.4862405054713648
  0.4208679848154731  0.8850535794835608  0.4870201559155731
  0.4526139495468087  0.9422576715811886  0.4258248817341297
  0.4200433950034252  0.5433581238309273  0.4864139925636124
  0.4464407969043478  0.5115750929889842  0.4255459399015677
  0.0792069252978820  0.5444469914236549  0.4857072418448709
  0.0211824459489804  0.5108056390305862  0.4248485964577711
  0.7386275528334920  0.2268821122195490  0.4824765231905843
  0.7369497157544060  0.5190560777893864  0.4858935065805596
  0.8845722779544971  0.4562235033518505  0.5922405756164153
  0.5131332072600756  0.0809695585430390  0.5925791947236974
  0.5222633335993905  0.4510167384029486  0.5932571686866339
  0.5020255243017431  0.7547784004558764  0.4874570267048455
  0.4448247830268812  0.2257356938183221  0.4848007380270616
  0.2092474408167746  0.7557745245613035  0.4879044327873601
  0.2087474419428901  0.4624578521406875  0.4837688353366474
  0.3746788521277722  0.8165707948122503  0.3626138222869315
  0.4429136980661568  0.9378984086479605  0.3244497865124529
  0.3979198717690906  0.5884602637423555  0.3615949284136093
  0.4522801242060837  0.5205719742856303  0.3240552078793186
  0.1472696593580380  0.5831421792729330  0.3607899757285296
  0.0247256009975345  0.5161965834948177  0.3229955020945212
 
  0.00000000E+00  0.00000000E+00  0.00000000E+00
  0.00000000E+00  0.00000000E+00  0.00000000E+00
  0.00000000E+00  0.00000000E+00  0.00000000E+00
  0.00000000E+00  0.00000000E+00  0.00000000E+00
  0.00000000E+00  0.00000000E+00  0.00000000E+00
  0.00000000E+00  0.00000000E+00  0.00000000E+00
  0.00000000E+00  0.00000000E+00  0.00000000E+00
  0.00000000E+00  0.00000000E+00  0.00000000E+00
  0.00000000E+00  0.00000000E+00  0.00000000E+00
  0.00000000E+00  0.00000000E+00  0.00000000E+00
  0.00000000E+00  0.00000000E+00  0.00000000E+00
  0.00000000E+00  0.00000000E+00  0.00000000E+00
  0.00000000E+00  0.00000000E+00  0.00000000E+00
  0.00000000E+00  0.00000000E+00  0.00000000E+00
  0.00000000E+00  0.00000000E+00  0.00000000E+00
  0.00000000E+00  0.00000000E+00  0.00000000E+00
  0.00000000E+00  0.00000000E+00  0.00000000E+00
  0.00000000E+00  0.00000000E+00  0.00000000E+00
  0.00000000E+00  0.00000000E+00  0.00000000E+00
  0.00000000E+00  0.00000000E+00  0.00000000E+00
  0.00000000E+00  0.00000000E+00  0.00000000E+00
  0.00000000E+00  0.00000000E+00  0.00000000E+00
  0.00000000E+00  0.00000000E+00  0.00000000E+00
  0.00000000E+00  0.00000000E+00  0.00000000E+00
  0.00000000E+00  0.00000000E+00  0.00000000E+00
  0.00000000E+00  0.00000000E+00  0.00000000E+00
  0.00000000E+00  0.00000000E+00  0.00000000E+00
  0.00000000E+00  0.00000000E+00  0.00000000E+00
  0.00000000E+00  0.00000000E+00  0.00000000E+00
  0.00000000E+00  0.00000000E+00  0.00000000E+00
  0.00000000E+00  0.00000000E+00  0.00000000E+00
  0.00000000E+00  0.00000000E+00  0.00000000E+00
  0.00000000E+00  0.00000000E+00  0.00000000E+00
  0.00000000E+00  0.00000000E+00  0.00000000E+00
  0.00000000E+00  0.00000000E+00  0.00000000E+00
  0.00000000E+00  0.00000000E+00  0.00000000E+00
  0.00000000E+00  0.00000000E+00  0.00000000E+00
  0.00000000E+00  0.00000000E+00  0.00000000E+00
  0.00000000E+00  0.00000000E+00  0.00000000E+00
  0.00000000E+00  0.00000000E+00  0.00000000E+00
  0.00000000E+00  0.00000000E+00  0.00000000E+00
  0.00000000E+00  0.00000000E+00  0.00000000E+00
  0.00000000E+00  0.00000000E+00  0.00000000E+00
  0.00000000E+00  0.00000000E+00  0.00000000E+00
  0.00000000E+00  0.00000000E+00  0.00000000E+00
  0.00000000E+00  0.00000000E+00  0.00000000E+00
  0.00000000E+00  0.00000000E+00  0.00000000E+00
  0.00000000E+00  0.00000000E+00  0.00000000E+00
