Primitive Cell                          
   1.00000000000000     
    22.2789655913702767   -0.0433426216961618    0.0000000000000000
   -11.1772335491247592   19.2729725076978902    0.0000000000000000
     0.0000000000000000    0.0000000000000000   20.0000000000000000
   H    O    N    C 
    24     9    12    36
Direct
  0.5330961393390794  0.2792462979200465  0.4950038879205536
  0.7419725436477265  0.4528290239106312  0.4934809084209988
  0.7061821394537802  0.2443134672788219  0.4933198269222387
  0.4500502451375894  0.6827505024807152  0.5087670503512172
  0.2302723941354046  0.5360768226966428  0.5088056493438060
  0.3040248587708803  0.7557273922196615  0.5085291514342174
  0.5830529227618655  0.5427120158101815  0.6756769895145425
  0.6391526234113414  0.5951515984110856  0.6122671926615268
  0.6181916933653895  0.6351872003607895  0.6801870546440156
  0.4432422004625494  0.5938779032002230  0.5617447242423950
  0.9553903842623299  0.4013334139929796  0.6725854311167296
  0.9512511969849271  0.3451985406145042  0.6091912120239940
  0.0123405729079664  0.3659941645992504  0.6771398207156381
  0.1473938433983619  0.5415671936502733  0.5594532674946109
  0.4407646842432413  0.0292290502137647  0.6726028500132060
  0.3881926587641686  0.0309509575575149  0.6085105110160214
  0.3484441797031081  0.9700758483595919  0.6767567871077418
  0.3931808948377480  0.8381818741522480  0.5607980524110232
  0.4363699909526773  0.3933266760755316  0.4188586015813129
  0.5155721074029813  0.3559329829529929  0.4678857312977698
  0.9536870582677821  0.5513756380476806  0.4192888595652562
  0.8364638174488022  0.4710014661999438  0.4681159631284473
  0.5960470394411672  0.0341426064056094  0.4206024562975585
  0.6298761194026312  0.1504172517355329  0.4671207451444417
  0.6591867555018283  0.4886977548282587  0.5070287324843932
  0.8250500295908552  0.3268063457757933  0.5039050401735778
  0.4969920416297384  0.1598485476414169  0.5071658762751312
  0.3041332795447502  0.4841029070602261  0.4860586329321706
  0.1780001023484132  0.6819067948092297  0.4859330910905300
  0.5022101117983908  0.8088112633341353  0.4842851696671318
  0.5136699754054348  0.6225510250596926  0.6193014230797900
  0.1050957204514589  0.4700767823822289  0.6159013178113213
  0.3628629999505577  0.8788716202165503  0.6168928784064960
  0.5372374233667401  0.4909113295514942  0.5465343735193926
  0.4154183818365880  0.5538966113177395  0.5282923752676894
  0.9498328620371979  0.4478845103322939  0.5443120021976426
  0.1355635016540475  0.5700515361362619  0.5267196768772848
  0.4946707166708890  0.0354660049847624  0.5451771578547024
  0.4335481603001199  0.8505681053329184  0.5278178939458229
  0.4222717729101433  0.4661182391079990  0.4693958563866616
  0.5455227572337336  0.4038732748873315  0.4879210602521766
  0.0407495481679376  0.5644037153482842  0.4689153526668264
  0.8544323355287560  0.4406688196079642  0.4867735353595890
  0.5225166208909471  0.9463650543564057  0.4701122856493285
  0.5819257456594684  0.1317634943750221  0.4872256861212350
  0.7320730690745663  0.3498564621894218  0.4901689985117699
  0.6841756040834213  0.2783242457796504  0.4904587274587868
  0.6128485634940901  0.2536382655222269  0.4908995636688758
  0.5892302393870779  0.3013264639376914  0.4913551712013842
  0.7077122575114814  0.3966176221631983  0.4905809361124724
  0.8075023219867532  0.3703419509295287  0.4941914346968517
  0.5580669407442613  0.1780128321202312  0.4958082841306606
  0.2596836804550335  0.6454200576751461  0.5112331464520068
  0.3158527319679223  0.7138385742075926  0.5110787247871897
  0.3840415504017187  0.7267131934594673  0.5111497968252579
  0.3961994682881880  0.6707490767844391  0.5112316789907538
  0.2722833952579293  0.5900196867562855  0.5112634890205214
  0.1880570223042071  0.6357376710224401  0.5061245789075812
  0.4462522597767560  0.7984564111815686  0.5058087825925242
  0.4463446495175774  0.5146340907899116  0.5178745222775234
  0.5058439324142725  0.5280414479019981  0.5564637816315212
  0.5373035272823046  0.5834171921196756  0.6085383601022301
  0.5985404676906541  0.5903161632461220  0.6467460104558924
  0.0651169435543153  0.5393591773675439  0.5163919849051624
  0.0185787047487906  0.4791454587174542  0.5541593060549985
  0.0421929150836888  0.4469521655716804  0.6055332156513273
  0.9873510324918868  0.3857505907077368  0.6436951702588232
  0.4727756437767638  0.9210757023422076  0.5174530389720431
  0.4580647079563178  0.9666840253448186  0.5551590625495564
  0.4017332595942804  0.9419772345623727  0.6062475102276110
  0.3935001430949043  0.9959255422005810  0.6435743130086706
  0.6361964390923518  0.3727437372120548  0.4910328395294385
  0.6157727336566694  0.4275664272596842  0.4960347480050800
  0.3406005141528681  0.6024770341835080  0.5114967964715547
  0.3500939451500713  0.5404962066053116  0.5067342559866930
  0.4554190856138476  0.4314593742559509  0.4595503142292756
  0.5131542515517111  0.4432674602999001  0.4985910651553311
  0.9727053629425342  0.5314394505523410  0.4591357577206310
  0.9264218342493749  0.4728898153668695  0.4972649525379680
  0.5567207708115092  0.0143938578972183  0.4602412206111595
  0.5432038798584031  0.0597912064739745  0.4980934799326562
 
  0.00000000E+00  0.00000000E+00  0.00000000E+00
  0.00000000E+00  0.00000000E+00  0.00000000E+00
  0.00000000E+00  0.00000000E+00  0.00000000E+00
  0.00000000E+00  0.00000000E+00  0.00000000E+00
  0.00000000E+00  0.00000000E+00  0.00000000E+00
  0.00000000E+00  0.00000000E+00  0.00000000E+00
  0.00000000E+00  0.00000000E+00  0.00000000E+00
  0.00000000E+00  0.00000000E+00  0.00000000E+00
  0.00000000E+00  0.00000000E+00  0.00000000E+00
  0.00000000E+00  0.00000000E+00  0.00000000E+00
  0.00000000E+00  0.00000000E+00  0.00000000E+00
  0.00000000E+00  0.00000000E+00  0.00000000E+00
  0.00000000E+00  0.00000000E+00  0.00000000E+00
  0.00000000E+00  0.00000000E+00  0.00000000E+00
  0.00000000E+00  0.00000000E+00  0.00000000E+00
  0.00000000E+00  0.00000000E+00  0.00000000E+00
  0.00000000E+00  0.00000000E+00  0.00000000E+00
  0.00000000E+00  0.00000000E+00  0.00000000E+00
  0.00000000E+00  0.00000000E+00  0.00000000E+00
  0.00000000E+00  0.00000000E+00  0.00000000E+00
  0.00000000E+00  0.00000000E+00  0.00000000E+00
  0.00000000E+00  0.00000000E+00  0.00000000E+00
  0.00000000E+00  0.00000000E+00  0.00000000E+00
  0.00000000E+00  0.00000000E+00  0.00000000E+00
  0.00000000E+00  0.00000000E+00  0.00000000E+00
  0.00000000E+00  0.00000000E+00  0.00000000E+00
  0.00000000E+00  0.00000000E+00  0.00000000E+00
  0.00000000E+00  0.00000000E+00  0.00000000E+00
  0.00000000E+00  0.00000000E+00  0.00000000E+00
  0.00000000E+00  0.00000000E+00  0.00000000E+00
  0.00000000E+00  0.00000000E+00  0.00000000E+00
  0.00000000E+00  0.00000000E+00  0.00000000E+00
  0.00000000E+00  0.00000000E+00  0.00000000E+00
  0.00000000E+00  0.00000000E+00  0.00000000E+00
  0.00000000E+00  0.00000000E+00  0.00000000E+00
  0.00000000E+00  0.00000000E+00  0.00000000E+00
  0.00000000E+00  0.00000000E+00  0.00000000E+00
  0.00000000E+00  0.00000000E+00  0.00000000E+00
  0.00000000E+00  0.00000000E+00  0.00000000E+00
  0.00000000E+00  0.00000000E+00  0.00000000E+00
  0.00000000E+00  0.00000000E+00  0.00000000E+00
  0.00000000E+00  0.00000000E+00  0.00000000E+00
  0.00000000E+00  0.00000000E+00  0.00000000E+00
  0.00000000E+00  0.00000000E+00  0.00000000E+00
  0.00000000E+00  0.00000000E+00  0.00000000E+00
  0.00000000E+00  0.00000000E+00  0.00000000E+00
  0.00000000E+00  0.00000000E+00  0.00000000E+00
  0.00000000E+00  0.00000000E+00  0.00000000E+00
  0.00000000E+00  0.00000000E+00  0.00000000E+00
  0.00000000E+00  0.00000000E+00  0.00000000E+00
  0.00000000E+00  0.00000000E+00  0.00000000E+00
  0.00000000E+00  0.00000000E+00  0.00000000E+00
  0.00000000E+00  0.00000000E+00  0.00000000E+00
  0.00000000E+00  0.00000000E+00  0.00000000E+00
  0.00000000E+00  0.00000000E+00  0.00000000E+00
  0.00000000E+00  0.00000000E+00  0.00000000E+00
  0.00000000E+00  0.00000000E+00  0.00000000E+00
  0.00000000E+00  0.00000000E+00  0.00000000E+00
  0.00000000E+00  0.00000000E+00  0.00000000E+00
  0.00000000E+00  0.00000000E+00  0.00000000E+00
  0.00000000E+00  0.00000000E+00  0.00000000E+00
  0.00000000E+00  0.00000000E+00  0.00000000E+00
  0.00000000E+00  0.00000000E+00  0.00000000E+00
  0.00000000E+00  0.00000000E+00  0.00000000E+00
  0.00000000E+00  0.00000000E+00  0.00000000E+00
  0.00000000E+00  0.00000000E+00  0.00000000E+00
  0.00000000E+00  0.00000000E+00  0.00000000E+00
  0.00000000E+00  0.00000000E+00  0.00000000E+00
  0.00000000E+00  0.00000000E+00  0.00000000E+00
  0.00000000E+00  0.00000000E+00  0.00000000E+00
  0.00000000E+00  0.00000000E+00  0.00000000E+00
  0.00000000E+00  0.00000000E+00  0.00000000E+00
  0.00000000E+00  0.00000000E+00  0.00000000E+00
  0.00000000E+00  0.00000000E+00  0.00000000E+00
  0.00000000E+00  0.00000000E+00  0.00000000E+00
  0.00000000E+00  0.00000000E+00  0.00000000E+00
  0.00000000E+00  0.00000000E+00  0.00000000E+00
  0.00000000E+00  0.00000000E+00  0.00000000E+00
  0.00000000E+00  0.00000000E+00  0.00000000E+00
  0.00000000E+00  0.00000000E+00  0.00000000E+00
  0.00000000E+00  0.00000000E+00  0.00000000E+00
