Primitive Cell                          
   1.00000000000000     
    23.1493646483055322   -0.0004377059755389    0.0000000000000000
   -11.5749106274555782   20.0510757241782969    0.0000000000000000
     0.0000000000000000    0.0000000000000000   20.0000000000000000
   H    N    O    C 
    36    18     6    60
Direct
  0.6794462121024267  0.2858927352288632  0.5019773982297053
  0.4426607481010478  0.0663909313965760  0.5126122011140097
  0.4631256393126506  0.2016225285892261  0.6732228782075111
  0.4784126689738244  0.1470594855835543  0.6286682583101353
  0.8301340584962347  0.2840603034184852  0.6737276178839977
  0.7255466839379778  0.1956934423641812  0.6190149540362100
  0.6304455613706210  0.0678840751466865  0.5162684566551192
  0.6129007390599881  0.3519390062621994  0.5025163465619613
  0.3947631158113296  0.4486469019457999  0.5129553708171102
  0.7453772639388418  0.4185718021840259  0.5030275978942811
  0.9649877830081408  0.4013742232967843  0.5146202421168837
  0.4784461142978031  0.3061741978722523  0.6190835295679165
  0.8846128987745345  0.3545570120100408  0.6300421920170933
  0.2789030941133817  0.4681270422885362  0.6725780306356199
  0.4437387000960484  0.4008395096727639  0.5157235862949960
  0.0616196134075935  0.4502774354643435  0.5158451680274538
  0.6299399504188870  0.5886711417565778  0.5126513166305244
  0.7452475679361115  0.5690772026154818  0.6729385489375872
  0.6753158140245716  0.5535679152452673  0.6284791757726254
  0.8343201196950147  0.5534824849356639  0.6188460769367126
  0.3489905866467922  0.4836075163997862  0.6284237870722151
  0.1900642805696009  0.4837747394800758  0.6181028297639770
  0.9633685656508533  0.5875775116246231  0.5155450871846625
  0.3455350224768452  0.7516981906926432  0.5015789650094078
  0.5824933523955451  0.9710645070361537  0.5128706432785251
  0.4120916139867461  0.6854670003249339  0.5014000766889168
  0.2795570533672063  0.6191207129294156  0.5010552696552963
  0.0601251324264283  0.6365314303793781  0.5133120779226132
  0.5623644208098568  0.8353105197969981  0.6727317121294973
  0.5470315217560966  0.8900457955038235  0.6286210832181496
  0.5472128200526427  0.7311607548005199  0.6180980950589614
  0.1948592491537582  0.7524123227684782  0.6722054712052525
  0.1404960669360804  0.6822766644546689  0.6279972665004223
  0.2996389696691608  0.8411765919858638  0.6179902977290226
  0.3948190820654105  0.9697898875679485  0.5152590863937050
  0.5810456333827929  0.6364094126170770  0.5153225484478199
  0.4648947496071472  0.1825331856165562  0.6282202376660209
  0.5051804997354239  0.2368888453150575  0.4544768879614480
  0.7365415659280572  0.2365659216021783  0.4546853129934618
  0.8491980715754153  0.3055596135490291  0.6289382907987502
  0.5055367324336757  0.2946983657362239  0.4540850965815011
  0.7943164781074685  0.2940434805394219  0.4555912501756296
  0.7243810726424158  0.5673402690018250  0.6279400751028632
  0.2999627548416370  0.4699607976905256  0.6276715630198737
  0.7378579399856946  0.5258508930505172  0.4544337296782146
  0.7953522375524784  0.5255280853855240  0.4539706144540219
  0.2871765275947524  0.5117847437521164  0.4540451241431640
  0.2297805073755868  0.5122762586828244  0.4534238057318802
  0.5606791203953989  0.8546677732297638  0.6278599070741464
  0.1758075387477334  0.7313282372519296  0.6272701468481259
  0.5194325367087345  0.8004415694914258  0.4540592422385288
  0.5189848832743280  0.7425728015460606  0.4533918284511884
  0.2307485844018231  0.7441283985015019  0.4538702561308909
  0.2885764171325960  0.8016113295801617  0.4532823363030545
  0.6316556836856435  0.2652728559726185  0.5116631327998533
  0.6399992824904572  0.3997539750321337  0.5120655819800390
  0.7659991215680364  0.3914260242617189  0.5128200208082774
  0.3933053074487560  0.7722734900979447  0.5113372344752420
  0.3848895007573674  0.6376704894254033  0.5109978050054664
  0.2590009417837749  0.6463532928552240  0.5106950816487199
  0.5305823898207649  0.1615971611692402  0.5118768018735551
  0.4969675024185065  0.0921454556984500  0.5139496536038095
  0.4809376271198715  0.2223651073065085  0.5728013219627286
  0.4998200949972968  0.2047070651564411  0.5118448463646530
  0.7104824906869851  0.2056327088456129  0.5137730559858369
  0.7472623984257183  0.2235559175837025  0.5729510945400520
  0.5309420516649084  0.0557858704704017  0.5153159345918255
  0.6012453544535816  0.0929709921794384  0.5154766254192182
  0.6365251440419684  0.1624240258200373  0.5134116834902116
  0.6009751559986114  0.1972212144148031  0.5112305721970358
  0.8696988238518770  0.3939790000028864  0.5134576188607625
  0.9391693768769755  0.4298805296897044  0.5155112143455369
  0.5016064329927730  0.3208846805366292  0.5134469180056485
  0.4837554189349120  0.2842955937176228  0.5727334108455011
  0.8092111953757168  0.2826870101159571  0.5735042687926821
  0.8266442937986014  0.3201106713095641  0.5130987525947077
  0.4980288342601327  0.4300500846890216  0.5151646157000798
  0.5322798631126417  0.3948382417090173  0.5132347998902560
  0.6026155027620632  0.4304216743929317  0.5113613489908460
  0.8340524742688302  0.4287257423364323  0.5122263941648981
  0.6373456355463318  0.5008044605375872  0.5119344481268371
  0.6014367644981959  0.5343617021601972  0.5139648635225242
  0.4233059789734313  0.5029610821522681  0.5139702250381504
  0.3874534023896530  0.5365723324793592  0.5116671996573743
  0.8256176040994916  0.5298136387983732  0.5133453752736372
  0.8070375907651979  0.5480111753726646  0.5725241703006105
  0.7479714892411025  0.5509047143658350  0.5725976652073896
  0.7112312158801970  0.5316114842973150  0.5117700771770402
  0.1993029017255594  0.5078956884341252  0.5126735601358234
  0.2175730118520249  0.4894430653469541  0.5718856541886694
  0.2766378181788340  0.4865196754717047  0.5721970181934850
  0.3135833037871691  0.5058677750844893  0.5114767450503734
  0.5310940788592902  0.5003386031019730  0.5152221234330412
  0.4936512329295368  0.5369458375192906  0.5151120749408733
  0.9755022810285681  0.5002236765809016  0.5160934553589058
  0.9382928797757444  0.5332991086058811  0.5154797376294482
  0.8688390536562949  0.4990683480907165  0.5135377290324925
  0.0495440799312519  0.5376600252107835  0.5156796369165093
  0.1561532659199116  0.5387044767156510  0.5126166403115278
  0.0867237354116810  0.5045511800532196  0.5151817196430599
  0.5281761857171077  0.9453196572643208  0.5139766254624973
  0.4944949725139338  0.8758581365054852  0.5117397908479973
  0.0858921822192400  0.6079827656666836  0.5142545775281420
  0.1553409960272560  0.6438187638485076  0.5115879834861872
  0.5233229821843821  0.7164323871316611  0.5126251922961202
  0.5415881655407446  0.7530468512015176  0.5719013516138602
  0.5443716752475467  0.8149610468809740  0.5722787390706472
  0.5251728180994704  0.8326545058237258  0.5115252267679011
  0.3146467274815805  0.8320565805701889  0.5125602112812828
  0.2778707487234371  0.8137181043951500  0.5717432658651092
  0.2158853140349777  0.7546600928328644  0.5719508827715316
  0.1984328122181083  0.7176800118979685  0.5112757203578013
  0.4942577162578772  0.9817404016829272  0.5151507404793350
  0.4240987682070028  0.8403206152140257  0.5107993915846691
  0.3886229525492766  0.8751931594069617  0.5125468565378952
  0.4239528591910329  0.9446333141284313  0.5147469160801705
  0.4222287214310754  0.6069525388694998  0.5106319193756050
  0.4925738006817184  0.6424886821554807  0.5124893350737310
  0.5267599458823042  0.6072313411751225  0.5147415792215781
  0.1909511314825352  0.6090366130174445  0.5105328939641041
 
  0.00000000E+00  0.00000000E+00  0.00000000E+00
  0.00000000E+00  0.00000000E+00  0.00000000E+00
  0.00000000E+00  0.00000000E+00  0.00000000E+00
  0.00000000E+00  0.00000000E+00  0.00000000E+00
  0.00000000E+00  0.00000000E+00  0.00000000E+00
  0.00000000E+00  0.00000000E+00  0.00000000E+00
  0.00000000E+00  0.00000000E+00  0.00000000E+00
  0.00000000E+00  0.00000000E+00  0.00000000E+00
  0.00000000E+00  0.00000000E+00  0.00000000E+00
  0.00000000E+00  0.00000000E+00  0.00000000E+00
  0.00000000E+00  0.00000000E+00  0.00000000E+00
  0.00000000E+00  0.00000000E+00  0.00000000E+00
  0.00000000E+00  0.00000000E+00  0.00000000E+00
  0.00000000E+00  0.00000000E+00  0.00000000E+00
  0.00000000E+00  0.00000000E+00  0.00000000E+00
  0.00000000E+00  0.00000000E+00  0.00000000E+00
  0.00000000E+00  0.00000000E+00  0.00000000E+00
  0.00000000E+00  0.00000000E+00  0.00000000E+00
  0.00000000E+00  0.00000000E+00  0.00000000E+00
  0.00000000E+00  0.00000000E+00  0.00000000E+00
  0.00000000E+00  0.00000000E+00  0.00000000E+00
  0.00000000E+00  0.00000000E+00  0.00000000E+00
  0.00000000E+00  0.00000000E+00  0.00000000E+00
  0.00000000E+00  0.00000000E+00  0.00000000E+00
  0.00000000E+00  0.00000000E+00  0.00000000E+00
  0.00000000E+00  0.00000000E+00  0.00000000E+00
  0.00000000E+00  0.00000000E+00  0.00000000E+00
  0.00000000E+00  0.00000000E+00  0.00000000E+00
  0.00000000E+00  0.00000000E+00  0.00000000E+00
  0.00000000E+00  0.00000000E+00  0.00000000E+00
  0.00000000E+00  0.00000000E+00  0.00000000E+00
  0.00000000E+00  0.00000000E+00  0.00000000E+00
  0.00000000E+00  0.00000000E+00  0.00000000E+00
  0.00000000E+00  0.00000000E+00  0.00000000E+00
  0.00000000E+00  0.00000000E+00  0.00000000E+00
  0.00000000E+00  0.00000000E+00  0.00000000E+00
  0.00000000E+00  0.00000000E+00  0.00000000E+00
  0.00000000E+00  0.00000000E+00  0.00000000E+00
  0.00000000E+00  0.00000000E+00  0.00000000E+00
  0.00000000E+00  0.00000000E+00  0.00000000E+00
  0.00000000E+00  0.00000000E+00  0.00000000E+00
  0.00000000E+00  0.00000000E+00  0.00000000E+00
  0.00000000E+00  0.00000000E+00  0.00000000E+00
  0.00000000E+00  0.00000000E+00  0.00000000E+00
  0.00000000E+00  0.00000000E+00  0.00000000E+00
  0.00000000E+00  0.00000000E+00  0.00000000E+00
  0.00000000E+00  0.00000000E+00  0.00000000E+00
  0.00000000E+00  0.00000000E+00  0.00000000E+00
  0.00000000E+00  0.00000000E+00  0.00000000E+00
  0.00000000E+00  0.00000000E+00  0.00000000E+00
  0.00000000E+00  0.00000000E+00  0.00000000E+00
  0.00000000E+00  0.00000000E+00  0.00000000E+00
  0.00000000E+00  0.00000000E+00  0.00000000E+00
  0.00000000E+00  0.00000000E+00  0.00000000E+00
  0.00000000E+00  0.00000000E+00  0.00000000E+00
  0.00000000E+00  0.00000000E+00  0.00000000E+00
  0.00000000E+00  0.00000000E+00  0.00000000E+00
  0.00000000E+00  0.00000000E+00  0.00000000E+00
  0.00000000E+00  0.00000000E+00  0.00000000E+00
  0.00000000E+00  0.00000000E+00  0.00000000E+00
  0.00000000E+00  0.00000000E+00  0.00000000E+00
  0.00000000E+00  0.00000000E+00  0.00000000E+00
  0.00000000E+00  0.00000000E+00  0.00000000E+00
  0.00000000E+00  0.00000000E+00  0.00000000E+00
  0.00000000E+00  0.00000000E+00  0.00000000E+00
  0.00000000E+00  0.00000000E+00  0.00000000E+00
  0.00000000E+00  0.00000000E+00  0.00000000E+00
  0.00000000E+00  0.00000000E+00  0.00000000E+00
  0.00000000E+00  0.00000000E+00  0.00000000E+00
  0.00000000E+00  0.00000000E+00  0.00000000E+00
  0.00000000E+00  0.00000000E+00  0.00000000E+00
  0.00000000E+00  0.00000000E+00  0.00000000E+00
  0.00000000E+00  0.00000000E+00  0.00000000E+00
  0.00000000E+00  0.00000000E+00  0.00000000E+00
  0.00000000E+00  0.00000000E+00  0.00000000E+00
  0.00000000E+00  0.00000000E+00  0.00000000E+00
  0.00000000E+00  0.00000000E+00  0.00000000E+00
  0.00000000E+00  0.00000000E+00  0.00000000E+00
  0.00000000E+00  0.00000000E+00  0.00000000E+00
  0.00000000E+00  0.00000000E+00  0.00000000E+00
  0.00000000E+00  0.00000000E+00  0.00000000E+00
  0.00000000E+00  0.00000000E+00  0.00000000E+00
  0.00000000E+00  0.00000000E+00  0.00000000E+00
  0.00000000E+00  0.00000000E+00  0.00000000E+00
  0.00000000E+00  0.00000000E+00  0.00000000E+00
  0.00000000E+00  0.00000000E+00  0.00000000E+00
  0.00000000E+00  0.00000000E+00  0.00000000E+00
  0.00000000E+00  0.00000000E+00  0.00000000E+00
  0.00000000E+00  0.00000000E+00  0.00000000E+00
  0.00000000E+00  0.00000000E+00  0.00000000E+00
  0.00000000E+00  0.00000000E+00  0.00000000E+00
  0.00000000E+00  0.00000000E+00  0.00000000E+00
  0.00000000E+00  0.00000000E+00  0.00000000E+00
  0.00000000E+00  0.00000000E+00  0.00000000E+00
  0.00000000E+00  0.00000000E+00  0.00000000E+00
  0.00000000E+00  0.00000000E+00  0.00000000E+00
  0.00000000E+00  0.00000000E+00  0.00000000E+00
  0.00000000E+00  0.00000000E+00  0.00000000E+00
  0.00000000E+00  0.00000000E+00  0.00000000E+00
  0.00000000E+00  0.00000000E+00  0.00000000E+00
  0.00000000E+00  0.00000000E+00  0.00000000E+00
  0.00000000E+00  0.00000000E+00  0.00000000E+00
  0.00000000E+00  0.00000000E+00  0.00000000E+00
  0.00000000E+00  0.00000000E+00  0.00000000E+00
  0.00000000E+00  0.00000000E+00  0.00000000E+00
  0.00000000E+00  0.00000000E+00  0.00000000E+00
  0.00000000E+00  0.00000000E+00  0.00000000E+00
  0.00000000E+00  0.00000000E+00  0.00000000E+00
  0.00000000E+00  0.00000000E+00  0.00000000E+00
  0.00000000E+00  0.00000000E+00  0.00000000E+00
  0.00000000E+00  0.00000000E+00  0.00000000E+00
  0.00000000E+00  0.00000000E+00  0.00000000E+00
  0.00000000E+00  0.00000000E+00  0.00000000E+00
  0.00000000E+00  0.00000000E+00  0.00000000E+00
  0.00000000E+00  0.00000000E+00  0.00000000E+00
  0.00000000E+00  0.00000000E+00  0.00000000E+00
  0.00000000E+00  0.00000000E+00  0.00000000E+00
  0.00000000E+00  0.00000000E+00  0.00000000E+00
  0.00000000E+00  0.00000000E+00  0.00000000E+00
  0.00000000E+00  0.00000000E+00  0.00000000E+00
