Primitive Cell                          
   1.00000000000000     
    20.6524299465573549    0.3090020777766501    0.0000000000000000
   -10.0530833669544375   17.5441662956685818    0.0000000000000000
     0.0000000000000000    0.0000000000000000   20.0000000000000000
   C    H    N 
    36    18    30
Direct
  0.0351474750089054  0.8229222497177631  0.4301872497364769
  0.1739377557557518  0.7013712548040232  0.5656363469004333
  0.4942289098481538  0.8453185091821425  0.5621554210515001
  0.4518352117834468  0.8277589571115485  0.6232494540750935
  0.1444503814863012  0.6216184957844177  0.5863220662590791
  0.1441034384913209  0.4889717051784572  0.5918276062439389
  0.1735056288837598  0.6016205430772743  0.6440157529978876
  0.0339469398271746  0.9444943736800013  0.4058895786838335
  0.1453282258331896  0.8268296177979551  0.4566052477880476
  0.0740529250304078  0.9003298121253920  0.4127449498852087
  0.1847073642497747  0.9011483455022855  0.4272611812682285
  0.1820370297065494  0.7921990338872220  0.4948648202607160
  0.2825375901836935  0.8094273901682385  0.5551613620656042
  0.3637562377948456  0.8439499051938029  0.5659885749498699
  0.4149537560973826  0.8818309956635488  0.5144769012519319
  0.0967900582046539  0.4994549010608864  0.5473654841430360
  0.5434111067060456  0.8126998570906352  0.5475737785215244
  0.2847199266279716  0.4412936133251790  0.5590016430231373
  0.1752131319341785  0.4386485117003502  0.5739265868377430
  0.6274159351732109  0.7990227056712840  0.4852843742183239
  0.5420350237018923  0.7004595714184987  0.5466240006370029
  0.1826880941154343  0.3550124254861799  0.5034102907740916
  0.8032317894124859  0.9452463555059154  0.4229816552748176
  0.0353326215955931  0.1776418053764317  0.4419502536710738
  0.3655929577344281  0.4898495369474176  0.5672823909135545
  0.4949580467065147  0.6185049154304849  0.5614944420273176
  0.3963759787127330  0.5361887954997187  0.6260120576757089
  0.0337875195054522  0.0560129094313453  0.4109953564081081
  0.9250890743673921  0.9460588436362940  0.4074375511722650
  0.6993970153219564  0.8341357344862175  0.4509292316981757
  0.8428990488762622  0.9053396488834409  0.4134326402807389
  0.7366724894301839  0.7926644268075904  0.4309239225610142
  0.1457250856035728  0.2830578337320304  0.4669697528014680
  0.0740924312743658  0.1394004708374226  0.4219105749061782
  0.1851161709403542  0.2476762116815081  0.4374981107676348
  0.4749883790232658  0.5632004814601714  0.5112646628143764
  0.9749326060291921  0.7912066496997099  0.4279496573225430
  0.5110274964529822  0.7936698094251042  0.6805680290599838
  0.4376871828710733  0.7950891120089736  0.7193566439477905
  0.2226040429019989  0.7019792290953148  0.6912129532591749
  0.2252457805424513  0.6287372478844802  0.7325797731803760
  0.2886434826569442  0.9178022612753978  0.4417565950339650
  0.2814370076810633  0.9924320109458762  0.4020695341331972
  0.4028843663877950  0.9084590641768671  0.4724791173302165
  0.0616617340909116  0.4562306543419368  0.5115909747832035
  0.8297983794246377  0.0063813037890057  0.4168086577019210
  0.9750887832194124  0.1496104369905922  0.4412274493573136
  0.3083932997206915  0.4858815640312812  0.6871623131055387
  0.3871044937378727  0.5583011419909525  0.7221391793294956
  0.6522154591392493  0.6871966954988551  0.4492838813590083
  0.7355106409789656  0.6927883945108704  0.4183696288311438
  0.2898471183025180  0.3351496728006111  0.4500305562190405
  0.2816547168521026  0.2520361314285609  0.4110426167823391
  0.5083332173525079  0.5718999067319004  0.4665164207299526
  0.0712023282416396  0.7885745300198010  0.4540542160729970
  0.1407730634913236  0.7216734230087383  0.5189190849222598
  0.2408747145088554  0.7485370548917487  0.5925618747781840
  0.3849783028430309  0.8223118701960388  0.6212721781443733
  0.4769182830469418  0.8167051563934109  0.6830689073205960
  0.1773194375356155  0.5376639231876368  0.6418906719950002
  0.1980149317113060  0.6452773094298720  0.7001072273077895
  0.9596366803169474  0.9045315185182972  0.4045127509751154
  0.0739515277059581  0.0201878676250686  0.4076288387692770
  0.1476076335498391  0.9377367821654516  0.4094116373883878
  0.2586092714524995  0.9375743491363835  0.4164045513800474
  0.2563849930583544  0.8334402055869248  0.5046407448083983
  0.4777326749354742  0.8778252556572710  0.5119999518224958
  0.1016904572791120  0.5677174505845528  0.5432367034732053
  0.5981371939773652  0.8433256581227297  0.5030630053294942
  0.5211345204269193  0.7454333370905957  0.5782098884766427
  0.2435475759208146  0.4601962899069676  0.5984467104186564
  0.1411769514425529  0.3840923694036249  0.5286797169530359
  0.2573280112347049  0.3896370880255304  0.5099888892274578
  0.7333138334522502  0.9094738707847156  0.4433589380000811
  0.0715177446470463  0.2475810407395329  0.4658312117167327
  0.4582907394382119  0.6021181268028641  0.6194912171774760
  0.3647749969563918  0.5162144145989487  0.6876939198100374
  0.9593516010478069  0.0219669983368576  0.4110471637752440
  0.5939810440414561  0.7236045657694916  0.4986637387919828
  0.8092282902369803  0.8301473625373674  0.4155708739804851
  0.7027854188132494  0.7164413458342125  0.4269175250387391
  0.1476086506482090  0.1746683492901511  0.4182901300574287
  0.2590217162379673  0.2834879647656834  0.4280700247855194
  0.4084688485102035  0.5012534906201793  0.5139088131915415
 
  0.00000000E+00  0.00000000E+00  0.00000000E+00
  0.00000000E+00  0.00000000E+00  0.00000000E+00
  0.00000000E+00  0.00000000E+00  0.00000000E+00
  0.00000000E+00  0.00000000E+00  0.00000000E+00
  0.00000000E+00  0.00000000E+00  0.00000000E+00
  0.00000000E+00  0.00000000E+00  0.00000000E+00
  0.00000000E+00  0.00000000E+00  0.00000000E+00
  0.00000000E+00  0.00000000E+00  0.00000000E+00
  0.00000000E+00  0.00000000E+00  0.00000000E+00
  0.00000000E+00  0.00000000E+00  0.00000000E+00
  0.00000000E+00  0.00000000E+00  0.00000000E+00
  0.00000000E+00  0.00000000E+00  0.00000000E+00
  0.00000000E+00  0.00000000E+00  0.00000000E+00
  0.00000000E+00  0.00000000E+00  0.00000000E+00
  0.00000000E+00  0.00000000E+00  0.00000000E+00
  0.00000000E+00  0.00000000E+00  0.00000000E+00
  0.00000000E+00  0.00000000E+00  0.00000000E+00
  0.00000000E+00  0.00000000E+00  0.00000000E+00
  0.00000000E+00  0.00000000E+00  0.00000000E+00
  0.00000000E+00  0.00000000E+00  0.00000000E+00
  0.00000000E+00  0.00000000E+00  0.00000000E+00
  0.00000000E+00  0.00000000E+00  0.00000000E+00
  0.00000000E+00  0.00000000E+00  0.00000000E+00
  0.00000000E+00  0.00000000E+00  0.00000000E+00
  0.00000000E+00  0.00000000E+00  0.00000000E+00
  0.00000000E+00  0.00000000E+00  0.00000000E+00
  0.00000000E+00  0.00000000E+00  0.00000000E+00
  0.00000000E+00  0.00000000E+00  0.00000000E+00
  0.00000000E+00  0.00000000E+00  0.00000000E+00
  0.00000000E+00  0.00000000E+00  0.00000000E+00
  0.00000000E+00  0.00000000E+00  0.00000000E+00
  0.00000000E+00  0.00000000E+00  0.00000000E+00
  0.00000000E+00  0.00000000E+00  0.00000000E+00
  0.00000000E+00  0.00000000E+00  0.00000000E+00
  0.00000000E+00  0.00000000E+00  0.00000000E+00
  0.00000000E+00  0.00000000E+00  0.00000000E+00
  0.00000000E+00  0.00000000E+00  0.00000000E+00
  0.00000000E+00  0.00000000E+00  0.00000000E+00
  0.00000000E+00  0.00000000E+00  0.00000000E+00
  0.00000000E+00  0.00000000E+00  0.00000000E+00
  0.00000000E+00  0.00000000E+00  0.00000000E+00
  0.00000000E+00  0.00000000E+00  0.00000000E+00
  0.00000000E+00  0.00000000E+00  0.00000000E+00
  0.00000000E+00  0.00000000E+00  0.00000000E+00
  0.00000000E+00  0.00000000E+00  0.00000000E+00
  0.00000000E+00  0.00000000E+00  0.00000000E+00
  0.00000000E+00  0.00000000E+00  0.00000000E+00
  0.00000000E+00  0.00000000E+00  0.00000000E+00
  0.00000000E+00  0.00000000E+00  0.00000000E+00
  0.00000000E+00  0.00000000E+00  0.00000000E+00
  0.00000000E+00  0.00000000E+00  0.00000000E+00
  0.00000000E+00  0.00000000E+00  0.00000000E+00
  0.00000000E+00  0.00000000E+00  0.00000000E+00
  0.00000000E+00  0.00000000E+00  0.00000000E+00
  0.00000000E+00  0.00000000E+00  0.00000000E+00
  0.00000000E+00  0.00000000E+00  0.00000000E+00
  0.00000000E+00  0.00000000E+00  0.00000000E+00
  0.00000000E+00  0.00000000E+00  0.00000000E+00
  0.00000000E+00  0.00000000E+00  0.00000000E+00
  0.00000000E+00  0.00000000E+00  0.00000000E+00
  0.00000000E+00  0.00000000E+00  0.00000000E+00
  0.00000000E+00  0.00000000E+00  0.00000000E+00
  0.00000000E+00  0.00000000E+00  0.00000000E+00
  0.00000000E+00  0.00000000E+00  0.00000000E+00
  0.00000000E+00  0.00000000E+00  0.00000000E+00
  0.00000000E+00  0.00000000E+00  0.00000000E+00
  0.00000000E+00  0.00000000E+00  0.00000000E+00
  0.00000000E+00  0.00000000E+00  0.00000000E+00
  0.00000000E+00  0.00000000E+00  0.00000000E+00
  0.00000000E+00  0.00000000E+00  0.00000000E+00
  0.00000000E+00  0.00000000E+00  0.00000000E+00
  0.00000000E+00  0.00000000E+00  0.00000000E+00
  0.00000000E+00  0.00000000E+00  0.00000000E+00
  0.00000000E+00  0.00000000E+00  0.00000000E+00
  0.00000000E+00  0.00000000E+00  0.00000000E+00
  0.00000000E+00  0.00000000E+00  0.00000000E+00
  0.00000000E+00  0.00000000E+00  0.00000000E+00
  0.00000000E+00  0.00000000E+00  0.00000000E+00
  0.00000000E+00  0.00000000E+00  0.00000000E+00
  0.00000000E+00  0.00000000E+00  0.00000000E+00
  0.00000000E+00  0.00000000E+00  0.00000000E+00
  0.00000000E+00  0.00000000E+00  0.00000000E+00
  0.00000000E+00  0.00000000E+00  0.00000000E+00
  0.00000000E+00  0.00000000E+00  0.00000000E+00
