K-Path Generated by VASPKIT.
   20
Line-Mode
Reciprocal
   0.0000000000   0.0000000000   0.0000000000     \Gamma          
   0.5000000000  -0.5000000000   0.0000000000     X              
 
   0.5000000000  -0.5000000000   0.0000000000     X              
   0.5016576953  -0.4952145924   0.0000000000     H_1            
 
   0.5016576953  -0.4952145924   0.0000000000     H_1            
   0.5000000000   0.0000000000   0.0000000000     C              
 
   0.5000000000   0.0000000000   0.0000000000     C              
   0.4983423047   0.4952145924   0.0000000000     H              
 
   0.4983423047   0.4952145924   0.0000000000     H              
   0.0000000000   0.5000000000   0.0000000000     Y              
 
   0.0000000000   0.5000000000   0.0000000000     Y              
   0.0000000000   0.0000000000   0.0000000000     \Gamma          
 
