Primitive Cell                          
   1.00000000000000     
    33.7417704792250177   -0.0887991346461197    0.0000000000000000
   -16.9438792475761275   29.1068035198200548    0.0000000000000000
     0.0000000000000000    0.0000000000000000   20.0000000000000000
   O    N    H    C 
    24    24    36    84
Direct
  0.1846388117426372  0.9964628810280729  0.5830219600186268
  0.1526504214106268  0.9277567179408166  0.6297929553155370
  0.8299757022031358  0.9395764441209309  0.7000195352995604
  0.7819294126886760  0.9449883845081999  0.6310105624284006
  0.9988175326318682  0.1651827701716542  0.6464352085151290
  0.0687813696811759  0.2076869195575455  0.6871142155225627
  0.4279681234236961  0.8199633408636657  0.6160102935300742
  0.4176942516983075  0.8758215380508076  0.6530263163780603
  0.4049831488711959  0.5704018916437477  0.6272340023500576
  0.4720608220342086  0.5797970348393235  0.6575521531097337
  0.1512355700104351  0.5754919916932195  0.6298515294215150
  0.0950793105567271  0.5041062059264689  0.6456768751589195
  0.0647904329874081  0.8422909866213288  0.3852391863815257
  0.9969743305586860  0.8140855745013482  0.4334162500181051
  0.7834093473828219  0.8152588563063858  0.4505971536323727
  0.8217740424100413  0.8703189652676286  0.3767617370621608
  0.4556951663810196  0.8906221032330706  0.3578532356221089
  0.1488382816521323  0.2142743222071672  0.4344592110614371
  0.1839045618730495  0.1798528556193233  0.4774225785621908
  0.3888234845363385  0.8418060951528403  0.3127588500481195
  0.4518858240501302  0.6102285609587028  0.3208453540936205
  0.4399738164248674  0.5446255740238257  0.3631338217658779
  0.1873426242408129  0.5566122540612355  0.3269198665353059
  0.1287908395411321  0.5646124052882087  0.3564651558601568
  0.1540097194982195  0.9556811734573500  0.5884806537921392
  0.8139765438564481  0.9384024354438765  0.6438207280349957
  0.2503323635042136  0.8353882178628993  0.4945338053371842
  0.2553843902184312  0.7675620103026830  0.4958012922506612
  0.5911937564142988  0.7472457545557418  0.5250909765511622
  0.5261209791865653  0.7458149462586405  0.4759698860336385
  0.1614458214598287  0.4026458713520285  0.5283994464760866
  0.2258893313132759  0.4662422088425515  0.4770091794681903
  0.0405337340020893  0.1791330411423715  0.6477747455597012
  0.4153088931714635  0.8483727857567800  0.6097791498468155
  0.4457587443502717  0.5827268947781974  0.6173330297790542
  0.1269022375542761  0.5348473626137604  0.6127938766272862
  0.9791914481282831  0.9491461851265655  0.5117438083975685
  0.0381634296575157  0.8432340014999298  0.4267184101852664
  0.8111490156761008  0.8553483252796141  0.4344930844549992
  0.4140182279777846  0.8626052965940829  0.3608557051172596
  0.9797890298021628  0.0157582323579533  0.5542328487605630
  0.0501451484598405  0.0183049883410433  0.5306239048731172
  0.1820738046221848  0.7611211305357202  0.5015365363607103
  0.5904343465983075  0.8170983613752867  0.5079852997050693
  0.2337503769149265  0.4058645006897876  0.5237332743563528
  0.1521706887478587  0.1881726030127027  0.4744698859175500
  0.4512053405333845  0.5856558171570398  0.3674840706869489
  0.1576063611550325  0.5529156616323334  0.3669075243034925
  0.1073813098226921  0.9973684074707378  0.5702393994004993
  0.2336733343603825  0.8964658099255516  0.4745197017792435
  0.1878656233692624  0.9354726604231658  0.4753100321551997
  0.9026248617291444  0.9789634047078764  0.6252332393826450
  0.5074384000526919  0.9032238462079007  0.5313542474412145
  0.5633054908719757  0.8755232092167518  0.5305881217312418
  0.6662930709944561  0.7657717248595262  0.5815899189920017
  0.7517173824865466  0.8098537883272243  0.5891104193010790
  0.0009984289780363  0.0910892595221711  0.6204033700782503
  0.0973029179459814  0.3233539094781008  0.5322985326350533
  0.0582629128493650  0.2383035704343683  0.5418510354260917
  0.3342291316456354  0.8381369660868501  0.5990694195276376
  0.4041034090275772  0.4917573626219536  0.5423844292644731
  0.3205251275518677  0.4342360082578622  0.5424326087889284
  0.5187792664159971  0.6633486678855505  0.6037907725756995
  0.0903001525770506  0.5887568120354416  0.5165970549732464
  0.1192952477603413  0.6729870187309146  0.5190225183168522
  0.1361180103834059  0.4630790772568218  0.5954762150117148
  0.9986611619814596  0.8917314744484131  0.4504423062072860
  0.7541383000244437  0.9244623943056212  0.4890146092546956
  0.6686367218038924  0.8807599168165297  0.4839216998645739
  0.9002272529114350  0.9063375063033092  0.4459585752701614
  0.0673384139119975  0.8073299183995530  0.5310269429198371
  0.1132759870664515  0.7684029118992441  0.5268678660009840
  0.1889544991442662  0.2486986308021244  0.5825206674800469
  0.2277361457212734  0.3336379171241504  0.5694454208952067
  0.1068398108815529  0.0988596657397665  0.4901010542355664
  0.3294579289988846  0.8427428589320343  0.3831833553937187
  0.4659925711979014  0.7537303782558880  0.4242771073026148
  0.4107064166629115  0.7817039107424790  0.4227026132616274
  0.5141946873798062  0.6718522456457166  0.3884038277528319
  0.2939053205158544  0.5282248919295398  0.4327689803616792
  0.3769564118058568  0.5855343948750900  0.4317027016764570
  0.1776992377205318  0.4880652819764251  0.3880039336889780
  0.2550157430939279  0.7003435906835733  0.4703554465651791
  0.2263751851091271  0.6166644162855164  0.4661974080362725
  0.1972046176254096  0.8772780481145261  0.4865075429864305
  0.1715231796678864  0.8989720376203323  0.4875871978066186
  0.1140805304145545  0.9392931548619785  0.5428277863458959
  0.0925107966511050  0.9650689233791780  0.5427350958966812
  0.8362320192618284  0.9288175337661571  0.5871743871940893
  0.8839839472256443  0.9538290986168647  0.5861373114226041
  0.1245625924171279  0.8740826520969804  0.5035483926562634
  0.0984016747248759  0.8983890729705024  0.5060032317747485
  0.0502913946335539  0.9479376412292595  0.5100012528428337
  0.7582948222629895  0.8697830306107193  0.5390368593604578
  0.8094381716363657  0.8954896111810413  0.5389914934771198
  0.9074961681329299  0.9458605353389373  0.5352815170123932
  0.4984835907620564  0.8707212462204836  0.5071653374919123
  0.2041064464792441  0.8074218868377514  0.4990666429562580
  0.2736648130022346  0.8131543480051135  0.4943414356206191
  0.6120791494221365  0.7937670365850522  0.5221108068211464
  0.5487935982326420  0.7256228407156442  0.4994151941170344
  0.1880435980093580  0.3832581556849206  0.5338588492607386
  0.1824744178433875  0.4439538989422545  0.4990610789807235
  0.1763419949391434  0.8300626022370423  0.5006719484205604
  0.6622593006259549  0.8205544890442482  0.5321942784199933
  0.6857547297765478  0.8007806870016623  0.5623565673245494
  0.7334811500880889  0.8254277833749128  0.5663361634122808
  0.1649710023066291  0.3336741170838238  0.5493103034102518
  0.1169857583966234  0.3066315045057451  0.5434895877151575
  0.0953057279987419  0.2591173547621679  0.5493496728632223
  0.0579116858231785  0.1585410646633605  0.5986688321837903
  0.0332423334586665  0.1108821609854047  0.5934454939871827
  0.5298515923354330  0.8553256416029242  0.5067371775056273
  0.3250533859462621  0.8374561428633669  0.4915862430273918
  0.3499564937370963  0.8427687214623703  0.5499330669270677
  0.3941826251851097  0.8495587592354852  0.5453328191249298
  0.3800872968217561  0.4998006102056678  0.5180025957646919
  0.3332459402426338  0.4674134845960154  0.5179435514670843
  0.5202603004440007  0.6743725100140523  0.4967228247593596
  0.5044187121133348  0.6483579303788218  0.5551716384731051
  0.4659050126202828  0.6041764064367072  0.5519560692804077
  0.1264007944086174  0.6131403739143124  0.5063986902418023
  0.1425898448782164  0.6603380334696070  0.5078059867788056
  0.1598523643624574  0.4719460713029306  0.4928061536260131
  0.1419269862896400  0.4820642233840218  0.5489073091189596
  0.1369349091265732  0.5208222167794290  0.5475682002451023
  0.1210916461571827  0.2377235166120073  0.5619246595876675
  0.0980885617656995  0.1869913637833065  0.5618513795484290
  0.0509817406322028  0.0888428022624197  0.5547430531910251
  0.9582911741286395  0.9717587683013633  0.5335035694658714
  0.0252348375816638  0.9731422682796733  0.5167562250357065
  0.0317495981534393  0.9061549520829999  0.4755236501204720
  0.0567833624979528  0.8837303825407545  0.4717973968054068
  0.7348455836635566  0.8897900218555108  0.5095353695297860
  0.6871696168858037  0.8655389158795899  0.5067916721251393
  0.8826412123953418  0.9129144308477350  0.4863330952798819
  0.8349651309468982  0.8888917482598018  0.4890545776767325
  0.0256956879046797  0.0383351711398632  0.5466992041785659
  0.2090687228868831  0.7424670963515254  0.4980526844100908
  0.5467749879288633  0.7915397358353502  0.4871462201521481
  0.2515697827914281  0.4478546453064354  0.4961648283615929
  0.4550405092809271  0.8438893781629488  0.4781400601431685
  0.4161080046795647  0.8524734952303348  0.4842847700764565
  0.3961987623105543  0.5429255941484712  0.4880174595726956
  0.4438268882671395  0.5825997398217737  0.4920626199703264
  0.1564778746172593  0.5970932553840527  0.4916069561968186
  0.1456641846168623  0.5484586797924536  0.4907197538390449
  0.1036510273422664  0.8268599434215318  0.5176843506318036
  0.1292596320926123  0.8050138842610011  0.5159627244489116
  0.1688148828899472  0.2649369910682537  0.5708949924610565
  0.1906006964473761  0.3124481328904523  0.5642745729619492
  0.0923912451536069  0.1153531298443013  0.5203835111714241
  0.1135064467608018  0.1629939591341483  0.5220332656009035
  0.5178416341668779  0.8124839167268760  0.4784276199817725
  0.4751542670778122  0.7868095677464382  0.4464524903760818
  0.4443859729914195  0.8025949383720103  0.4457368592682940
  0.3920864140975908  0.8539531931514688  0.4276346709095051
  0.3472045924868326  0.8453971015942656  0.4299429339255951
  0.3017288254878423  0.4778342583194828  0.4885598293189872
  0.3182688360629484  0.5202139873343938  0.4557795225348897
  0.3648010930022707  0.5521191893573985  0.4552578607429894
  0.4665010319821477  0.6076056921354791  0.4340287473180240
  0.5019554377933133  0.6530825294885148  0.4353130650292201
  0.1891878397352755  0.6921042302024745  0.4955222121000062
  0.2189914483120035  0.6757179722424809  0.4800224544911060
  0.2027843138944903  0.6289541012261708  0.4775794647222469
  0.1551461397624223  0.5311453091669591  0.4323866767655602
  0.1648520454894467  0.4957820801875528  0.4331948004750075
 
  0.00000000E+00  0.00000000E+00  0.00000000E+00
  0.00000000E+00  0.00000000E+00  0.00000000E+00
  0.00000000E+00  0.00000000E+00  0.00000000E+00
  0.00000000E+00  0.00000000E+00  0.00000000E+00
  0.00000000E+00  0.00000000E+00  0.00000000E+00
  0.00000000E+00  0.00000000E+00  0.00000000E+00
  0.00000000E+00  0.00000000E+00  0.00000000E+00
  0.00000000E+00  0.00000000E+00  0.00000000E+00
  0.00000000E+00  0.00000000E+00  0.00000000E+00
  0.00000000E+00  0.00000000E+00  0.00000000E+00
  0.00000000E+00  0.00000000E+00  0.00000000E+00
  0.00000000E+00  0.00000000E+00  0.00000000E+00
  0.00000000E+00  0.00000000E+00  0.00000000E+00
  0.00000000E+00  0.00000000E+00  0.00000000E+00
  0.00000000E+00  0.00000000E+00  0.00000000E+00
  0.00000000E+00  0.00000000E+00  0.00000000E+00
  0.00000000E+00  0.00000000E+00  0.00000000E+00
  0.00000000E+00  0.00000000E+00  0.00000000E+00
  0.00000000E+00  0.00000000E+00  0.00000000E+00
  0.00000000E+00  0.00000000E+00  0.00000000E+00
  0.00000000E+00  0.00000000E+00  0.00000000E+00
  0.00000000E+00  0.00000000E+00  0.00000000E+00
  0.00000000E+00  0.00000000E+00  0.00000000E+00
  0.00000000E+00  0.00000000E+00  0.00000000E+00
  0.00000000E+00  0.00000000E+00  0.00000000E+00
  0.00000000E+00  0.00000000E+00  0.00000000E+00
  0.00000000E+00  0.00000000E+00  0.00000000E+00
  0.00000000E+00  0.00000000E+00  0.00000000E+00
  0.00000000E+00  0.00000000E+00  0.00000000E+00
  0.00000000E+00  0.00000000E+00  0.00000000E+00
  0.00000000E+00  0.00000000E+00  0.00000000E+00
  0.00000000E+00  0.00000000E+00  0.00000000E+00
  0.00000000E+00  0.00000000E+00  0.00000000E+00
  0.00000000E+00  0.00000000E+00  0.00000000E+00
  0.00000000E+00  0.00000000E+00  0.00000000E+00
  0.00000000E+00  0.00000000E+00  0.00000000E+00
  0.00000000E+00  0.00000000E+00  0.00000000E+00
  0.00000000E+00  0.00000000E+00  0.00000000E+00
  0.00000000E+00  0.00000000E+00  0.00000000E+00
  0.00000000E+00  0.00000000E+00  0.00000000E+00
  0.00000000E+00  0.00000000E+00  0.00000000E+00
  0.00000000E+00  0.00000000E+00  0.00000000E+00
  0.00000000E+00  0.00000000E+00  0.00000000E+00
  0.00000000E+00  0.00000000E+00  0.00000000E+00
  0.00000000E+00  0.00000000E+00  0.00000000E+00
  0.00000000E+00  0.00000000E+00  0.00000000E+00
  0.00000000E+00  0.00000000E+00  0.00000000E+00
  0.00000000E+00  0.00000000E+00  0.00000000E+00
  0.00000000E+00  0.00000000E+00  0.00000000E+00
  0.00000000E+00  0.00000000E+00  0.00000000E+00
  0.00000000E+00  0.00000000E+00  0.00000000E+00
  0.00000000E+00  0.00000000E+00  0.00000000E+00
  0.00000000E+00  0.00000000E+00  0.00000000E+00
  0.00000000E+00  0.00000000E+00  0.00000000E+00
  0.00000000E+00  0.00000000E+00  0.00000000E+00
  0.00000000E+00  0.00000000E+00  0.00000000E+00
  0.00000000E+00  0.00000000E+00  0.00000000E+00
  0.00000000E+00  0.00000000E+00  0.00000000E+00
  0.00000000E+00  0.00000000E+00  0.00000000E+00
  0.00000000E+00  0.00000000E+00  0.00000000E+00
  0.00000000E+00  0.00000000E+00  0.00000000E+00
  0.00000000E+00  0.00000000E+00  0.00000000E+00
  0.00000000E+00  0.00000000E+00  0.00000000E+00
  0.00000000E+00  0.00000000E+00  0.00000000E+00
  0.00000000E+00  0.00000000E+00  0.00000000E+00
  0.00000000E+00  0.00000000E+00  0.00000000E+00
  0.00000000E+00  0.00000000E+00  0.00000000E+00
  0.00000000E+00  0.00000000E+00  0.00000000E+00
  0.00000000E+00  0.00000000E+00  0.00000000E+00
  0.00000000E+00  0.00000000E+00  0.00000000E+00
  0.00000000E+00  0.00000000E+00  0.00000000E+00
  0.00000000E+00  0.00000000E+00  0.00000000E+00
  0.00000000E+00  0.00000000E+00  0.00000000E+00
  0.00000000E+00  0.00000000E+00  0.00000000E+00
  0.00000000E+00  0.00000000E+00  0.00000000E+00
  0.00000000E+00  0.00000000E+00  0.00000000E+00
  0.00000000E+00  0.00000000E+00  0.00000000E+00
  0.00000000E+00  0.00000000E+00  0.00000000E+00
  0.00000000E+00  0.00000000E+00  0.00000000E+00
  0.00000000E+00  0.00000000E+00  0.00000000E+00
  0.00000000E+00  0.00000000E+00  0.00000000E+00
  0.00000000E+00  0.00000000E+00  0.00000000E+00
  0.00000000E+00  0.00000000E+00  0.00000000E+00
  0.00000000E+00  0.00000000E+00  0.00000000E+00
  0.00000000E+00  0.00000000E+00  0.00000000E+00
  0.00000000E+00  0.00000000E+00  0.00000000E+00
  0.00000000E+00  0.00000000E+00  0.00000000E+00
  0.00000000E+00  0.00000000E+00  0.00000000E+00
  0.00000000E+00  0.00000000E+00  0.00000000E+00
  0.00000000E+00  0.00000000E+00  0.00000000E+00
  0.00000000E+00  0.00000000E+00  0.00000000E+00
  0.00000000E+00  0.00000000E+00  0.00000000E+00
  0.00000000E+00  0.00000000E+00  0.00000000E+00
  0.00000000E+00  0.00000000E+00  0.00000000E+00
  0.00000000E+00  0.00000000E+00  0.00000000E+00
  0.00000000E+00  0.00000000E+00  0.00000000E+00
  0.00000000E+00  0.00000000E+00  0.00000000E+00
  0.00000000E+00  0.00000000E+00  0.00000000E+00
  0.00000000E+00  0.00000000E+00  0.00000000E+00
  0.00000000E+00  0.00000000E+00  0.00000000E+00
  0.00000000E+00  0.00000000E+00  0.00000000E+00
  0.00000000E+00  0.00000000E+00  0.00000000E+00
  0.00000000E+00  0.00000000E+00  0.00000000E+00
  0.00000000E+00  0.00000000E+00  0.00000000E+00
  0.00000000E+00  0.00000000E+00  0.00000000E+00
  0.00000000E+00  0.00000000E+00  0.00000000E+00
  0.00000000E+00  0.00000000E+00  0.00000000E+00
  0.00000000E+00  0.00000000E+00  0.00000000E+00
  0.00000000E+00  0.00000000E+00  0.00000000E+00
  0.00000000E+00  0.00000000E+00  0.00000000E+00
  0.00000000E+00  0.00000000E+00  0.00000000E+00
  0.00000000E+00  0.00000000E+00  0.00000000E+00
  0.00000000E+00  0.00000000E+00  0.00000000E+00
  0.00000000E+00  0.00000000E+00  0.00000000E+00
  0.00000000E+00  0.00000000E+00  0.00000000E+00
  0.00000000E+00  0.00000000E+00  0.00000000E+00
  0.00000000E+00  0.00000000E+00  0.00000000E+00
  0.00000000E+00  0.00000000E+00  0.00000000E+00
  0.00000000E+00  0.00000000E+00  0.00000000E+00
  0.00000000E+00  0.00000000E+00  0.00000000E+00
  0.00000000E+00  0.00000000E+00  0.00000000E+00
  0.00000000E+00  0.00000000E+00  0.00000000E+00
  0.00000000E+00  0.00000000E+00  0.00000000E+00
  0.00000000E+00  0.00000000E+00  0.00000000E+00
  0.00000000E+00  0.00000000E+00  0.00000000E+00
  0.00000000E+00  0.00000000E+00  0.00000000E+00
  0.00000000E+00  0.00000000E+00  0.00000000E+00
  0.00000000E+00  0.00000000E+00  0.00000000E+00
  0.00000000E+00  0.00000000E+00  0.00000000E+00
  0.00000000E+00  0.00000000E+00  0.00000000E+00
  0.00000000E+00  0.00000000E+00  0.00000000E+00
  0.00000000E+00  0.00000000E+00  0.00000000E+00
  0.00000000E+00  0.00000000E+00  0.00000000E+00
  0.00000000E+00  0.00000000E+00  0.00000000E+00
  0.00000000E+00  0.00000000E+00  0.00000000E+00
  0.00000000E+00  0.00000000E+00  0.00000000E+00
  0.00000000E+00  0.00000000E+00  0.00000000E+00
  0.00000000E+00  0.00000000E+00  0.00000000E+00
  0.00000000E+00  0.00000000E+00  0.00000000E+00
  0.00000000E+00  0.00000000E+00  0.00000000E+00
  0.00000000E+00  0.00000000E+00  0.00000000E+00
  0.00000000E+00  0.00000000E+00  0.00000000E+00
  0.00000000E+00  0.00000000E+00  0.00000000E+00
  0.00000000E+00  0.00000000E+00  0.00000000E+00
  0.00000000E+00  0.00000000E+00  0.00000000E+00
  0.00000000E+00  0.00000000E+00  0.00000000E+00
  0.00000000E+00  0.00000000E+00  0.00000000E+00
  0.00000000E+00  0.00000000E+00  0.00000000E+00
  0.00000000E+00  0.00000000E+00  0.00000000E+00
  0.00000000E+00  0.00000000E+00  0.00000000E+00
  0.00000000E+00  0.00000000E+00  0.00000000E+00
  0.00000000E+00  0.00000000E+00  0.00000000E+00
  0.00000000E+00  0.00000000E+00  0.00000000E+00
  0.00000000E+00  0.00000000E+00  0.00000000E+00
  0.00000000E+00  0.00000000E+00  0.00000000E+00
  0.00000000E+00  0.00000000E+00  0.00000000E+00
  0.00000000E+00  0.00000000E+00  0.00000000E+00
  0.00000000E+00  0.00000000E+00  0.00000000E+00
  0.00000000E+00  0.00000000E+00  0.00000000E+00
  0.00000000E+00  0.00000000E+00  0.00000000E+00
  0.00000000E+00  0.00000000E+00  0.00000000E+00
  0.00000000E+00  0.00000000E+00  0.00000000E+00
  0.00000000E+00  0.00000000E+00  0.00000000E+00
  0.00000000E+00  0.00000000E+00  0.00000000E+00
  0.00000000E+00  0.00000000E+00  0.00000000E+00
  0.00000000E+00  0.00000000E+00  0.00000000E+00
  0.00000000E+00  0.00000000E+00  0.00000000E+00
  0.00000000E+00  0.00000000E+00  0.00000000E+00
