Primitive Cell                          
   1.00000000000000     
    29.0367357833089237    0.0116890782900101    0.0000000000000000
   -14.5082386397168932   25.2063136017172411    0.0000000000000000
     0.0000000000000000    0.0000000000000000   20.0000000000000000
   H    N    C 
    24    18    48
Direct
  0.4434996146985881  0.6529775332026020  0.5245968955825973
  0.2119626775614663  0.5575506045907375  0.5256696384422526
  0.3474719886927957  0.7886495888495801  0.5229561956851398
  0.5606658275918761  0.3489441028957216  0.4786052134900487
  0.7905863460642948  0.4390167171795341  0.4782221942467189
  0.6513077195760317  0.2093507263682213  0.4802717564702874
  0.6007258267313276  0.1355331535768585  0.4025745127595073
  0.5596611504270257  0.9563631651606030  0.3666573029696778
  0.5965603075670671  0.0536075480504792  0.3596256699999003
  0.4994127587746604  0.8698968352257737  0.4216699939180302
  0.8646809087145968  0.4613878201993131  0.4008116013183738
  0.0441116006760041  0.5996331754076181  0.3648562080159294
  0.9468570028371133  0.5389852543940350  0.3573809656009885
  0.1307639147908191  0.6267195175572695  0.4211123583893652
  0.5377858950038075  0.4002439040367420  0.4005523947717506
  0.4001462717481488  0.4426080275746216  0.3647537091087401
  0.4603524770843777  0.4053027378849947  0.3574022298278834
  0.3737075312723164  0.5025726631112661  0.4206525186681844
  0.4951997423089907  0.1210357980907233  0.5633680746831615
  0.4041724361273680  0.8694878429355839  0.5873374126269937
  0.8794502600182312  0.3729967090549948  0.5645589835737894
  0.1305591619418820  0.5341544538254652  0.5896594628550673
  0.6284792976527243  0.5047107578525356  0.5619952597219608
  0.4673611436835685  0.5954078738147146  0.5882149134309245
  0.3118840968010801  0.6119374551163972  0.5256461827750769
  0.3889174033630667  0.6984169251052705  0.5242296758500729
  0.3022366471600009  0.6889214033855779  0.5245314720493610
  0.6915380524751598  0.3870067708294087  0.4793071444708303
  0.6128291450881633  0.3017875954995901  0.4803161508496245
  0.6982795664945698  0.3083453107456080  0.4803794860749093
  0.4267981233200331  0.8072768288656391  0.5069815303744463
  0.1931594826438214  0.6178993235546528  0.5082035978960420
  0.3830133240040610  0.5740085130080601  0.5074103215934471
  0.4907849595288738  0.0509343447843662  0.5333309598323908
  0.4515833093545538  0.9423579000487976  0.5435126036769447
  0.5714709206563953  0.1905669740588110  0.4865953930752696
  0.9494987681305886  0.4384708591574480  0.5341077215727026
  0.0577712712051621  0.5081155814549376  0.5448541220434251
  0.8097464896448230  0.3783642020369200  0.4862539387029514
  0.5628731162893743  0.5095640592478645  0.5321545520075901
  0.4931507564503050  0.5484632858153446  0.5434339588462507
  0.6216491341462955  0.4285607760460550  0.4850473057080151
  0.2827015400597546  0.6360521603776164  0.5248936158447037
  0.3648284190614532  0.6452393444402560  0.5245340255780135
  0.3554894005852915  0.7179876700064014  0.5237094496390782
  0.3773567251253667  0.7759143558244261  0.5190798257641873
  0.2246437670806927  0.6000230288240118  0.5210249992665865
  0.4009464590817160  0.6232689336236632  0.5202388896200318
  0.7193375047829420  0.3613971048923119  0.4800094376375625
  0.6384054681156073  0.3550780087302883  0.4798779458584903
  0.6448975994391972  0.2806741129273220  0.4807544709960325
  0.6216648649930363  0.2225262099812753  0.4820034729704048
  0.7775673808744301  0.3963457454222308  0.4808180543472176
  0.6034426480996515  0.3784248967885304  0.4805009737483559
  0.5490647390592684  0.0566217620290104  0.4419706309747511
  0.5707015839356728  0.1119913224277909  0.4399783639218668
  0.4879708095523014  0.9703737650587314  0.4955913282111055
  0.4470336475375944  0.8616976146763378  0.5025317855590501
  0.4859702354843591  0.8905059904614134  0.4550958322581877
  0.5068825741672711  0.9455795186832248  0.4499107736795054
  0.5462142051302408  0.9765565804418941  0.4008063879651047
  0.5664615414746450  0.0300371984059140  0.3969095497231123
  0.9437284660637957  0.4896071936774717  0.4410720908421197
  0.8883259250795774  0.4556263086975676  0.4388720665864270
  0.0299577631549255  0.5158263714237989  0.4959629851683971
  0.1386682365340235  0.5836913700222794  0.5035311771345832
  0.1099883279743352  0.5931516180017056  0.4550781883180974
  0.0548761230419643  0.5588941897751099  0.4495678751375465
  0.0239122397064762  0.5664490047072448  0.3995292052364903
  0.9703984422269940  0.5330334667542544  0.3953763548246201
  0.5105126938906679  0.4519570262382828  0.4403115331755814
  0.5441578233537854  0.4300739306845287  0.4381804126770703
  0.4851173436587999  0.5127107401901654  0.4947788314774400
  0.4172624355936350  0.5537206189286721  0.5025971573990020
  0.4075011189371338  0.5154401456436588  0.4543662994827713
  0.4416921129382203  0.4944502656121017  0.4487867000889025
  0.4335915776174275  0.4555998897924169  0.3991056154087218
  0.4667551044066656  0.4351370025824153  0.3950166653033804
  0.5525392753666978  0.1361447945606287  0.4846095734905873
  0.5108707226134968  0.1027417617122950  0.5292241091125618
  0.5092768085992887  0.0272420801112645  0.4911568027179882
  0.4320775277989526  0.8906114151441145  0.5466335207206754
  0.8642160113143262  0.4139325442324306  0.4842575513185565
  0.8976847601261184  0.4064796913556208  0.5298106938906955
  0.9731125132820182  0.4800585850106600  0.4912198211683219
  0.1095674625655221  0.5404152269574496  0.5482647729359087
  0.5862900540499751  0.4477774245114787  0.4830059585529156
  0.5945555550776760  0.4893133055071530  0.5278436149914683
  0.5207675714216933  0.4913977807696952  0.4899152582213731
  0.4608454616638724  0.5680103037720983  0.5469750296677915
 
  0.00000000E+00  0.00000000E+00  0.00000000E+00
  0.00000000E+00  0.00000000E+00  0.00000000E+00
  0.00000000E+00  0.00000000E+00  0.00000000E+00
  0.00000000E+00  0.00000000E+00  0.00000000E+00
  0.00000000E+00  0.00000000E+00  0.00000000E+00
  0.00000000E+00  0.00000000E+00  0.00000000E+00
  0.00000000E+00  0.00000000E+00  0.00000000E+00
  0.00000000E+00  0.00000000E+00  0.00000000E+00
  0.00000000E+00  0.00000000E+00  0.00000000E+00
  0.00000000E+00  0.00000000E+00  0.00000000E+00
  0.00000000E+00  0.00000000E+00  0.00000000E+00
  0.00000000E+00  0.00000000E+00  0.00000000E+00
  0.00000000E+00  0.00000000E+00  0.00000000E+00
  0.00000000E+00  0.00000000E+00  0.00000000E+00
  0.00000000E+00  0.00000000E+00  0.00000000E+00
  0.00000000E+00  0.00000000E+00  0.00000000E+00
  0.00000000E+00  0.00000000E+00  0.00000000E+00
  0.00000000E+00  0.00000000E+00  0.00000000E+00
  0.00000000E+00  0.00000000E+00  0.00000000E+00
  0.00000000E+00  0.00000000E+00  0.00000000E+00
  0.00000000E+00  0.00000000E+00  0.00000000E+00
  0.00000000E+00  0.00000000E+00  0.00000000E+00
  0.00000000E+00  0.00000000E+00  0.00000000E+00
  0.00000000E+00  0.00000000E+00  0.00000000E+00
  0.00000000E+00  0.00000000E+00  0.00000000E+00
  0.00000000E+00  0.00000000E+00  0.00000000E+00
  0.00000000E+00  0.00000000E+00  0.00000000E+00
  0.00000000E+00  0.00000000E+00  0.00000000E+00
  0.00000000E+00  0.00000000E+00  0.00000000E+00
  0.00000000E+00  0.00000000E+00  0.00000000E+00
  0.00000000E+00  0.00000000E+00  0.00000000E+00
  0.00000000E+00  0.00000000E+00  0.00000000E+00
  0.00000000E+00  0.00000000E+00  0.00000000E+00
  0.00000000E+00  0.00000000E+00  0.00000000E+00
  0.00000000E+00  0.00000000E+00  0.00000000E+00
  0.00000000E+00  0.00000000E+00  0.00000000E+00
  0.00000000E+00  0.00000000E+00  0.00000000E+00
  0.00000000E+00  0.00000000E+00  0.00000000E+00
  0.00000000E+00  0.00000000E+00  0.00000000E+00
  0.00000000E+00  0.00000000E+00  0.00000000E+00
  0.00000000E+00  0.00000000E+00  0.00000000E+00
  0.00000000E+00  0.00000000E+00  0.00000000E+00
  0.00000000E+00  0.00000000E+00  0.00000000E+00
  0.00000000E+00  0.00000000E+00  0.00000000E+00
  0.00000000E+00  0.00000000E+00  0.00000000E+00
  0.00000000E+00  0.00000000E+00  0.00000000E+00
  0.00000000E+00  0.00000000E+00  0.00000000E+00
  0.00000000E+00  0.00000000E+00  0.00000000E+00
  0.00000000E+00  0.00000000E+00  0.00000000E+00
  0.00000000E+00  0.00000000E+00  0.00000000E+00
  0.00000000E+00  0.00000000E+00  0.00000000E+00
  0.00000000E+00  0.00000000E+00  0.00000000E+00
  0.00000000E+00  0.00000000E+00  0.00000000E+00
  0.00000000E+00  0.00000000E+00  0.00000000E+00
  0.00000000E+00  0.00000000E+00  0.00000000E+00
  0.00000000E+00  0.00000000E+00  0.00000000E+00
  0.00000000E+00  0.00000000E+00  0.00000000E+00
  0.00000000E+00  0.00000000E+00  0.00000000E+00
  0.00000000E+00  0.00000000E+00  0.00000000E+00
  0.00000000E+00  0.00000000E+00  0.00000000E+00
  0.00000000E+00  0.00000000E+00  0.00000000E+00
  0.00000000E+00  0.00000000E+00  0.00000000E+00
  0.00000000E+00  0.00000000E+00  0.00000000E+00
  0.00000000E+00  0.00000000E+00  0.00000000E+00
  0.00000000E+00  0.00000000E+00  0.00000000E+00
  0.00000000E+00  0.00000000E+00  0.00000000E+00
  0.00000000E+00  0.00000000E+00  0.00000000E+00
  0.00000000E+00  0.00000000E+00  0.00000000E+00
  0.00000000E+00  0.00000000E+00  0.00000000E+00
  0.00000000E+00  0.00000000E+00  0.00000000E+00
  0.00000000E+00  0.00000000E+00  0.00000000E+00
  0.00000000E+00  0.00000000E+00  0.00000000E+00
  0.00000000E+00  0.00000000E+00  0.00000000E+00
  0.00000000E+00  0.00000000E+00  0.00000000E+00
  0.00000000E+00  0.00000000E+00  0.00000000E+00
  0.00000000E+00  0.00000000E+00  0.00000000E+00
  0.00000000E+00  0.00000000E+00  0.00000000E+00
  0.00000000E+00  0.00000000E+00  0.00000000E+00
  0.00000000E+00  0.00000000E+00  0.00000000E+00
  0.00000000E+00  0.00000000E+00  0.00000000E+00
  0.00000000E+00  0.00000000E+00  0.00000000E+00
  0.00000000E+00  0.00000000E+00  0.00000000E+00
  0.00000000E+00  0.00000000E+00  0.00000000E+00
  0.00000000E+00  0.00000000E+00  0.00000000E+00
  0.00000000E+00  0.00000000E+00  0.00000000E+00
  0.00000000E+00  0.00000000E+00  0.00000000E+00
  0.00000000E+00  0.00000000E+00  0.00000000E+00
  0.00000000E+00  0.00000000E+00  0.00000000E+00
  0.00000000E+00  0.00000000E+00  0.00000000E+00
  0.00000000E+00  0.00000000E+00  0.00000000E+00
