Primitive Cell                          
   1.00000000000000     
    21.9527746735340870    0.0239648187849084    0.0000000000000000
   -10.9556060567178779   18.9793945711410181    0.0000000000000000
     0.0000000000000000    0.0000000000000000   20.0000000000000000
   N    H    C 
    12    54    42
Direct
  0.2892904698635732  0.6969866257562458  0.5010702615386435
  0.2998981626075761  0.5926936335168662  0.5000394734145317
  0.4039274352060218  0.7074453901849935  0.5011869214043898
  0.1917484075104241  0.5855369201143077  0.5001189346793353
  0.4112043935798582  0.6063315629429127  0.5002295161721975
  0.3901345968794416  0.8052240909753792  0.5018006008342510
  0.7063529552095744  0.3010091616784081  0.5003170373678287
  0.6970420092421534  0.4060216916784753  0.5008103597909965
  0.5923003192463270  0.2917852556658147  0.5003905033526834
  0.8046382284157687  0.4119562079940238  0.5004703004118625
  0.5861729628664705  0.3934705067677697  0.5002578373807935
  0.6048265747892643  0.1932570561688465  0.5003561620119612
  0.1727584159766025  0.5329283952645198  0.4975066821979865
  0.4637442684825501  0.6398827222493253  0.4985079735048998
  0.3565857673563286  0.8242747339651899  0.4992019857938388
  0.8240957262551660  0.4646482492202324  0.5029962423255299
  0.5335645171303156  0.3602169674723967  0.5022734728148279
  0.6379184450412794  0.1736664738708029  0.5030446950786569
  0.4825939290263435  0.0584403568330032  0.6597850945714612
  0.5630015043301242  0.0584175516691730  0.6597579995439418
  0.5588498339776180  0.1299911888417213  0.6243279485835842
  0.4554622717507044  0.8678494076620211  0.6198654614485477
  0.5404637103698704  0.9359787339682697  0.6433189297836606
  0.4652864351742991  0.9412860746052303  0.6651680840667353
  0.5022256608629547  0.1565383926993391  0.4658383239208064
  0.5095434839657855  0.1559897205005498  0.5527990634862974
  0.5739554245490410  0.5154226297533313  0.6583315633550271
  0.4929099347917827  0.4356549320271625  0.6594907888697250
  0.5673703549721267  0.4379990034795043  0.6233442787310466
  0.4083383286714053  0.5409514234107249  0.6188312346460947
  0.3928190586325471  0.4564059259435425  0.6428263288060450
  0.4727172015387637  0.5325190718634616  0.6640395554583591
  0.6514218587049783  0.4961603372430758  0.4651387660599582
  0.6436252190840150  0.4892823172273992  0.5521573140097829
  0.9397936298285146  0.4255885702987428  0.6594320983200674
  0.9385352162278480  0.5055372952321875  0.6587059114883900
  0.8677636610543260  0.4291811488714643  0.6235832077997685
  0.1292012055125653  0.5888369594057394  0.6191304893307787
  0.0609399303862972  0.6057249123929083  0.6422234021420792
  0.0559267385875657  0.5253522145959337  0.6644893358374730
  0.8416101426790874  0.3463831831163589  0.4650517625092974
  0.8424741670772349  0.3538354546364744  0.5521095106444207
  0.4530127291135244  0.0632024066608210  0.3593708182154458
  0.5385019341617578  0.1308646383913086  0.3820418971579755
  0.5274638032910914  0.0569830326862828  0.3366805693345469
  0.4334467544927136  0.8685986550833178  0.3782283342284956
  0.4309358053491295  0.9408411794244174  0.3422870053876679
  0.5104775489438751  0.9390737806516327  0.3426391202086450
  0.4853586964484506  0.8436064180991849  0.4490377591507624
  0.4930422545650330  0.8430673810434541  0.5360010461520233
  0.6057570440361744  0.5437889273690502  0.3577716770491506
  0.5892789789690269  0.4588307377166814  0.3814481670641570
  0.5255225050160917  0.4682820212250007  0.3361385133781027
  0.4302406166676818  0.5617371407601155  0.3769153228649316
  0.5053832912497001  0.5652646638421857  0.3411524359544202
  0.4248749669040990  0.4849588137096532  0.3416563306457192
  0.3542875409501463  0.5105576881791620  0.4481514685863530
  0.3464479553193556  0.5034834162485424  0.5351415908711630
  0.9336695756827069  0.3907856917789161  0.3584477034683928
  0.8665060384701135  0.4093002435831821  0.3815739956460149
  0.9402192545588264  0.4718294566856045  0.3360935534145710
  0.1282353397013125  0.5664881682058649  0.3771460704258303
  0.0564044543078950  0.4915745529845239  0.3412628098951487
  0.0573712022691950  0.5726433880952797  0.3418909834718988
  0.1531301268056566  0.6428758758777278  0.4482859962474137
  0.1541523967312273  0.6506554418619430  0.5353076893760544
  0.3605375485907061  0.7340350710797594  0.5013573377269864
  0.2628093281243480  0.6269877502296026  0.5004533772701407
  0.3697547553352010  0.6360685840567939  0.5005396947103691
  0.6351039907357006  0.2645222356227279  0.5003465292670768
  0.7335117164347622  0.3710921257907245  0.5005241088759647
  0.6271007023943227  0.3631746794374209  0.5004766807143426
  0.5132819064922032  0.0699233873678367  0.5035233469108391
  0.5118367643258708  0.0349065104892716  0.5631696361344041
  0.4939332123399893  0.9635497799822375  0.5608135837492938
  0.5299642778948837  0.0726038502225563  0.6297752283185289
  0.4884920487857087  0.9250194963587575  0.6252260612091476
  0.5293729753132297  0.1454984081238706  0.5061494749198374
  0.5535619928529414  0.4844362335438603  0.5027011385299787
  0.5199177629309588  0.4856889137880316  0.5623198923492367
  0.4661600387102780  0.5030623705845798  0.5599013855893276
  0.5398126108505039  0.4678260554581826  0.6289001553390392
  0.4331546744617469  0.5085332768854443  0.6243230748037689
  0.6134069807725737  0.4689944549665412  0.5055370227983644
  0.9278090330753983  0.4440396223256329  0.5028735788265877
  0.9626851229052207  0.4777335313763658  0.5624719816702850
  0.0337770089052540  0.5313647620681579  0.5600271071369676
  0.9250378047494294  0.4582184840541217  0.6290730668260167
  0.0721108021844756  0.5646649822998882  0.6244018855367557
  0.8525657595469553  0.3843342768423881  0.5056079242235469
  0.4807053452775847  0.9289861379053477  0.4986027855254420
  0.4818383077570871  0.9639052140909001  0.4389977820892526
  0.4998109754147748  0.0352757482717223  0.4413235844576846
  0.5050094513150896  0.0737209183259608  0.3769128557731278
  0.4632717240200535  0.9259455311097753  0.3725127633484107
  0.4654122597868806  0.8536789456866885  0.4958415210844791
  0.4445340211562083  0.5158086090084453  0.4976201244344409
  0.4782076472159957  0.5145996939922455  0.4380072404605713
  0.5319671398614432  0.4972229234047632  0.4404279595119078
  0.5649725732525681  0.4917346186842195  0.3760141752295567
  0.4583931991674248  0.5325013347843282  0.3714084622982270
  0.3844536888944745  0.5308988825424450  0.4947918584806175
  0.0681748161208375  0.5527007430400488  0.4977676311976680
  0.0332666438497995  0.5190201328096720  0.4381605506069803
  0.9621418699190514  0.4654964064616607  0.4405881880123346
  0.9235012715965567  0.4325219317669706  0.3762324231196601
  0.0709659515838368  0.5387046091260572  0.3715749106821633
  0.1433299236783441  0.6125936041063014  0.4948955238072728
 
  0.00000000E+00  0.00000000E+00  0.00000000E+00
  0.00000000E+00  0.00000000E+00  0.00000000E+00
  0.00000000E+00  0.00000000E+00  0.00000000E+00
  0.00000000E+00  0.00000000E+00  0.00000000E+00
  0.00000000E+00  0.00000000E+00  0.00000000E+00
  0.00000000E+00  0.00000000E+00  0.00000000E+00
  0.00000000E+00  0.00000000E+00  0.00000000E+00
  0.00000000E+00  0.00000000E+00  0.00000000E+00
  0.00000000E+00  0.00000000E+00  0.00000000E+00
  0.00000000E+00  0.00000000E+00  0.00000000E+00
  0.00000000E+00  0.00000000E+00  0.00000000E+00
  0.00000000E+00  0.00000000E+00  0.00000000E+00
  0.00000000E+00  0.00000000E+00  0.00000000E+00
  0.00000000E+00  0.00000000E+00  0.00000000E+00
  0.00000000E+00  0.00000000E+00  0.00000000E+00
  0.00000000E+00  0.00000000E+00  0.00000000E+00
  0.00000000E+00  0.00000000E+00  0.00000000E+00
  0.00000000E+00  0.00000000E+00  0.00000000E+00
  0.00000000E+00  0.00000000E+00  0.00000000E+00
  0.00000000E+00  0.00000000E+00  0.00000000E+00
  0.00000000E+00  0.00000000E+00  0.00000000E+00
  0.00000000E+00  0.00000000E+00  0.00000000E+00
  0.00000000E+00  0.00000000E+00  0.00000000E+00
  0.00000000E+00  0.00000000E+00  0.00000000E+00
  0.00000000E+00  0.00000000E+00  0.00000000E+00
  0.00000000E+00  0.00000000E+00  0.00000000E+00
  0.00000000E+00  0.00000000E+00  0.00000000E+00
  0.00000000E+00  0.00000000E+00  0.00000000E+00
  0.00000000E+00  0.00000000E+00  0.00000000E+00
  0.00000000E+00  0.00000000E+00  0.00000000E+00
  0.00000000E+00  0.00000000E+00  0.00000000E+00
  0.00000000E+00  0.00000000E+00  0.00000000E+00
  0.00000000E+00  0.00000000E+00  0.00000000E+00
  0.00000000E+00  0.00000000E+00  0.00000000E+00
  0.00000000E+00  0.00000000E+00  0.00000000E+00
  0.00000000E+00  0.00000000E+00  0.00000000E+00
  0.00000000E+00  0.00000000E+00  0.00000000E+00
  0.00000000E+00  0.00000000E+00  0.00000000E+00
  0.00000000E+00  0.00000000E+00  0.00000000E+00
  0.00000000E+00  0.00000000E+00  0.00000000E+00
  0.00000000E+00  0.00000000E+00  0.00000000E+00
  0.00000000E+00  0.00000000E+00  0.00000000E+00
  0.00000000E+00  0.00000000E+00  0.00000000E+00
  0.00000000E+00  0.00000000E+00  0.00000000E+00
  0.00000000E+00  0.00000000E+00  0.00000000E+00
  0.00000000E+00  0.00000000E+00  0.00000000E+00
  0.00000000E+00  0.00000000E+00  0.00000000E+00
  0.00000000E+00  0.00000000E+00  0.00000000E+00
  0.00000000E+00  0.00000000E+00  0.00000000E+00
  0.00000000E+00  0.00000000E+00  0.00000000E+00
  0.00000000E+00  0.00000000E+00  0.00000000E+00
  0.00000000E+00  0.00000000E+00  0.00000000E+00
  0.00000000E+00  0.00000000E+00  0.00000000E+00
  0.00000000E+00  0.00000000E+00  0.00000000E+00
  0.00000000E+00  0.00000000E+00  0.00000000E+00
  0.00000000E+00  0.00000000E+00  0.00000000E+00
  0.00000000E+00  0.00000000E+00  0.00000000E+00
  0.00000000E+00  0.00000000E+00  0.00000000E+00
  0.00000000E+00  0.00000000E+00  0.00000000E+00
  0.00000000E+00  0.00000000E+00  0.00000000E+00
  0.00000000E+00  0.00000000E+00  0.00000000E+00
  0.00000000E+00  0.00000000E+00  0.00000000E+00
  0.00000000E+00  0.00000000E+00  0.00000000E+00
  0.00000000E+00  0.00000000E+00  0.00000000E+00
  0.00000000E+00  0.00000000E+00  0.00000000E+00
  0.00000000E+00  0.00000000E+00  0.00000000E+00
  0.00000000E+00  0.00000000E+00  0.00000000E+00
  0.00000000E+00  0.00000000E+00  0.00000000E+00
  0.00000000E+00  0.00000000E+00  0.00000000E+00
  0.00000000E+00  0.00000000E+00  0.00000000E+00
  0.00000000E+00  0.00000000E+00  0.00000000E+00
  0.00000000E+00  0.00000000E+00  0.00000000E+00
  0.00000000E+00  0.00000000E+00  0.00000000E+00
  0.00000000E+00  0.00000000E+00  0.00000000E+00
  0.00000000E+00  0.00000000E+00  0.00000000E+00
  0.00000000E+00  0.00000000E+00  0.00000000E+00
  0.00000000E+00  0.00000000E+00  0.00000000E+00
  0.00000000E+00  0.00000000E+00  0.00000000E+00
  0.00000000E+00  0.00000000E+00  0.00000000E+00
  0.00000000E+00  0.00000000E+00  0.00000000E+00
  0.00000000E+00  0.00000000E+00  0.00000000E+00
  0.00000000E+00  0.00000000E+00  0.00000000E+00
  0.00000000E+00  0.00000000E+00  0.00000000E+00
  0.00000000E+00  0.00000000E+00  0.00000000E+00
  0.00000000E+00  0.00000000E+00  0.00000000E+00
  0.00000000E+00  0.00000000E+00  0.00000000E+00
  0.00000000E+00  0.00000000E+00  0.00000000E+00
  0.00000000E+00  0.00000000E+00  0.00000000E+00
  0.00000000E+00  0.00000000E+00  0.00000000E+00
  0.00000000E+00  0.00000000E+00  0.00000000E+00
  0.00000000E+00  0.00000000E+00  0.00000000E+00
  0.00000000E+00  0.00000000E+00  0.00000000E+00
  0.00000000E+00  0.00000000E+00  0.00000000E+00
  0.00000000E+00  0.00000000E+00  0.00000000E+00
  0.00000000E+00  0.00000000E+00  0.00000000E+00
  0.00000000E+00  0.00000000E+00  0.00000000E+00
  0.00000000E+00  0.00000000E+00  0.00000000E+00
  0.00000000E+00  0.00000000E+00  0.00000000E+00
  0.00000000E+00  0.00000000E+00  0.00000000E+00
  0.00000000E+00  0.00000000E+00  0.00000000E+00
  0.00000000E+00  0.00000000E+00  0.00000000E+00
  0.00000000E+00  0.00000000E+00  0.00000000E+00
  0.00000000E+00  0.00000000E+00  0.00000000E+00
  0.00000000E+00  0.00000000E+00  0.00000000E+00
  0.00000000E+00  0.00000000E+00  0.00000000E+00
  0.00000000E+00  0.00000000E+00  0.00000000E+00
  0.00000000E+00  0.00000000E+00  0.00000000E+00
  0.00000000E+00  0.00000000E+00  0.00000000E+00
