Primitive Cell                          
   1.00000000000000     
    37.6188137713253639    0.0514102008019433    0.0000000000000000
   -18.7311443618036684   32.5779149449834264    0.0000000000000000
     0.0000000000000000    0.0000000000000000   20.0000000000000000
   H    N    C 
    48     6    72
Direct
  0.4860650501770678  0.4050832558130679  0.5047642258476941
  0.5160272698149697  0.3595018067172333  0.5158685699719285
  0.5437091338580728  0.1794553149544598  0.4903334551583072
  0.8353580508920544  0.4786437112448638  0.4309341134088669
  0.9105183725519410  0.5128379751949623  0.4235104994463725
  0.4987894626679434  0.1056556067747110  0.4786441765475544
  0.7726693675993914  0.4298150260303686  0.4765567481773942
  0.5714822082396864  0.3474445942466531  0.5124401481444423
  0.6596320897914083  0.2288305550871499  0.5189458152459849
  0.5231627215176502  0.6165974538008427  0.4559575914496534
  0.4882390443973250  0.6567221729745114  0.4659605413050656
  0.4576608702433163  0.8351975092433293  0.5272972344083513
  0.1653533945509622  0.5225033340716010  0.4559532814998519
  0.0899960019472061  0.4913549571619811  0.4466747478269966
  0.4981415350833274  0.9105055675400493  0.5168765632546695
  0.2297510235436988  0.5741921859932901  0.4918519757590047
  0.4322334550693157  0.6639026640082051  0.4901530151348794
  0.3412839603174973  0.7753554407855390  0.4959435594095680
  0.9676522784567325  0.5159589742222792  0.3848273456567171
  0.0445875524944839  0.5491016201961330  0.3885218889091959
  0.5742333385374110  0.5327474932356253  0.4172581563199955
  0.5415021688248132  0.5763472284237352  0.4147297786517186
  0.4738741197623213  0.0481326124731751  0.4211790421851873
  0.4298329847792459  0.9720372127387904  0.4188606126541288
  0.6071216863653177  0.5082870661187542  0.4752987828300448
  0.6367820335882826  0.4637603295153028  0.4861640685259729
  0.7134880471473650  0.4133627611812614  0.5186230134121814
  0.5940506419526841  0.3054805232612807  0.5099086369900618
  0.7018967404367444  0.2935616919250918  0.5237762290302541
  0.9104683616045364  0.4222321403569040  0.5555482825193394
  0.8349309288322928  0.3876088270111637  0.5629655198766557
  0.6008753472563768  0.0857809901021724  0.5104993509321289
  0.6469015403555716  0.1609657783241190  0.5222901638031985
  0.7685366738765680  0.3528047660610625  0.5380381476139533
  0.6580487590495494  0.4229484521093383  0.5073680395036391
  0.5846783637436417  0.2409804023153370  0.5096130757267971
  0.4123000333019888  0.5074592512655585  0.5145284880894820
  0.3771063010488476  0.5477462255844614  0.5253254980963789
  0.2924217686702661  0.5948298903909262  0.5223310669542300
  0.4109504074673467  0.7041491804252402  0.5174684922687405
  0.3016094124840336  0.7136505018370727  0.5237995333925696
  0.0972495784176033  0.5974200242344807  0.5423844032512832
  0.1721255792056482  0.6285176820316707  0.5520730802812679
  0.3889249209256391  0.9138412956317410  0.4629523155795070
  0.3485468644368908  0.8389257145600624  0.4727074917267515
  0.2367938709506703  0.6564354882179160  0.5323687153644130
  0.3501452806518301  0.5869994371930431  0.5239967466750386
  0.4187146790823846  0.7694736726804621  0.5230968946253256
  0.9800644875598934  0.4837566718272726  0.5370100827427322
  0.0206151537306809  0.5007303441242072  0.5384239646983531
  0.4892965446928628  0.4737195022888017  0.5094672249624850
  0.4719468324888680  0.4968872602492240  0.5082744663395289
  0.5321975472727019  0.0212534317745749  0.5139679112619859
  0.5088227207805289  0.9808790705592898  0.5128051571481578
  0.5441165500988063  0.4597180144407602  0.4879915292047912
  0.5786960293957719  0.4078157123868706  0.5019248052621492
  0.5360480945060644  0.3922677749950481  0.5068498071706244
  0.5190391379933885  0.4175318179374017  0.5004668633152320
  0.5948315532769328  0.3798638311308693  0.5084341107027299
  0.7846292992424679  0.4110744069383898  0.4980888040271765
  0.8516929690417072  0.4657961830346053  0.4577357955119936
  0.9159054963921633  0.4692902920848212  0.4879136480728476
  0.8941374811978307  0.4848959330841183  0.4531852466753108
  0.6273617948778067  0.2202168599555208  0.5139670473674727
  0.5568959434500087  0.1594602239552501  0.4946570883910653
  0.5467676903103893  0.0902103299309118  0.4925225337371373
  0.5314089712155052  0.1175059186485043  0.4873271250114399
  0.4699613194504266  0.5585842554209250  0.4833545732259097
  0.4298633777100349  0.6056285555285896  0.4958351026236372
  0.4712609045430511  0.6238189356236603  0.4761907683177142
  0.4908821269746966  0.6009400096950088  0.4700456812603733
  0.4112448678192706  0.6314571427152487  0.5008157273625855
  0.2191198512292800  0.5954647253822998  0.5061241626110871
  0.1504841947108204  0.5391591976305676  0.4746677086553319
  0.0885536444945458  0.5425437114891949  0.4929083331402069
  0.1081340273247875  0.5216297855163887  0.4691887194924362
  0.3738757022371146  0.7865344589922714  0.5046837527580408
  0.4423232331841120  0.8521301268183947  0.5125379361794344
  0.4469732580373247  0.9177865064532753  0.4879142381036914
  0.4653463851201067  0.8944469497979668  0.5067227442950539
  0.0433812925660604  0.5241680237331536  0.4868888957288178
  0.0254721828128837  0.5307243159786807  0.4300635074295656
  0.9832739341303807  0.5127666558903030  0.4283914825706105
  0.9609888348603235  0.4893825021314910  0.4840428219194735
  0.4906697619614064  0.5341371559978043  0.4781049837689579
  0.5278112440944440  0.5478784794415006  0.4433065320391378
  0.5459744853280526  0.5237954966511111  0.4447112034247240
  0.5263297612553970  0.4866646800608976  0.4806355900455230
  0.4716317699561543  0.9628123943387124  0.4826083887939419
  0.4582158360021324  0.9865113854685745  0.4475898542534438
  0.4825506824603494  0.0286202662673958  0.4488748978779142
  0.5195733848776456  0.0456571408567612  0.4849796476607011
  0.5867461367602687  0.4755139886058330  0.4832581512862930
  0.6036425759236153  0.4502658045602956  0.4901444089864100
  0.6348705163210937  0.3904076276777957  0.5098150710625760
  0.6516904516359219  0.3628685535055709  0.5138629799624681
  0.6273188364924422  0.3198008566377695  0.5135032156252350
  0.6445927986048119  0.2942552498122808  0.5170147665495577
  0.6876019966642062  0.3126702212872061  0.5212995225578680
  0.7129044522100827  0.3554101102557823  0.5201853955644253
  0.6943638373497549  0.3800165935899358  0.5172742109926602
  0.7574233022161323  0.3731283744333567  0.5205565312912626
  0.8291019242120541  0.4300146202067907  0.4962782837886834
  0.8512304716832517  0.4147211044962944  0.5314331256546652
  0.8936249982954436  0.4339849360735926  0.5275788521573332
  0.6170894839670495  0.2500018712265231  0.5137777942153789
  0.5991702567862376  0.1763175092821498  0.5072901427927121
  0.6142817366513000  0.1487550449328410  0.5126520980521434
  0.5887706261901968  0.1066692548558024  0.5058500996663327
  0.4285923567691654  0.5401862443804148  0.5034718590204648
  0.4090861634887304  0.5631035908802602  0.5094976886377225
  0.3717263055133770  0.6195434648982001  0.5152961304314658
  0.3537720486753031  0.6461869953259551  0.5182674013115971
  0.3775769439581893  0.6893480173070969  0.5181130415998183
  0.3595524343471581  0.7142478887171393  0.5190901258289884
  0.3164692662107811  0.6950503567202446  0.5216375758432363
  0.2917298849715024  0.6522306219189460  0.5215801374700746
  0.3109747840815089  0.6282279244715241  0.5207139915968995
  0.2472592994748126  0.6345905856869507  0.5214243725340140
  0.1747671324591735  0.5781919156976798  0.5034773727671933
  0.1545868333088407  0.5986745760393291  0.5279519729920992
  0.1123075691991176  0.5811963795716792  0.5226759240832592
  0.3860388662018792  0.7587366982522710  0.5165752496674756
  0.3997114287861763  0.8308809369452561  0.5000398740203096
  0.3815178449277141  0.8544658852025790  0.4819234009152780
  0.4045197990276108  0.8968683940510545  0.4758980481198520
 
  0.00000000E+00  0.00000000E+00  0.00000000E+00
  0.00000000E+00  0.00000000E+00  0.00000000E+00
  0.00000000E+00  0.00000000E+00  0.00000000E+00
  0.00000000E+00  0.00000000E+00  0.00000000E+00
  0.00000000E+00  0.00000000E+00  0.00000000E+00
  0.00000000E+00  0.00000000E+00  0.00000000E+00
  0.00000000E+00  0.00000000E+00  0.00000000E+00
  0.00000000E+00  0.00000000E+00  0.00000000E+00
  0.00000000E+00  0.00000000E+00  0.00000000E+00
  0.00000000E+00  0.00000000E+00  0.00000000E+00
  0.00000000E+00  0.00000000E+00  0.00000000E+00
  0.00000000E+00  0.00000000E+00  0.00000000E+00
  0.00000000E+00  0.00000000E+00  0.00000000E+00
  0.00000000E+00  0.00000000E+00  0.00000000E+00
  0.00000000E+00  0.00000000E+00  0.00000000E+00
  0.00000000E+00  0.00000000E+00  0.00000000E+00
  0.00000000E+00  0.00000000E+00  0.00000000E+00
  0.00000000E+00  0.00000000E+00  0.00000000E+00
  0.00000000E+00  0.00000000E+00  0.00000000E+00
  0.00000000E+00  0.00000000E+00  0.00000000E+00
  0.00000000E+00  0.00000000E+00  0.00000000E+00
  0.00000000E+00  0.00000000E+00  0.00000000E+00
  0.00000000E+00  0.00000000E+00  0.00000000E+00
  0.00000000E+00  0.00000000E+00  0.00000000E+00
  0.00000000E+00  0.00000000E+00  0.00000000E+00
  0.00000000E+00  0.00000000E+00  0.00000000E+00
  0.00000000E+00  0.00000000E+00  0.00000000E+00
  0.00000000E+00  0.00000000E+00  0.00000000E+00
  0.00000000E+00  0.00000000E+00  0.00000000E+00
  0.00000000E+00  0.00000000E+00  0.00000000E+00
  0.00000000E+00  0.00000000E+00  0.00000000E+00
  0.00000000E+00  0.00000000E+00  0.00000000E+00
  0.00000000E+00  0.00000000E+00  0.00000000E+00
  0.00000000E+00  0.00000000E+00  0.00000000E+00
  0.00000000E+00  0.00000000E+00  0.00000000E+00
  0.00000000E+00  0.00000000E+00  0.00000000E+00
  0.00000000E+00  0.00000000E+00  0.00000000E+00
  0.00000000E+00  0.00000000E+00  0.00000000E+00
  0.00000000E+00  0.00000000E+00  0.00000000E+00
  0.00000000E+00  0.00000000E+00  0.00000000E+00
  0.00000000E+00  0.00000000E+00  0.00000000E+00
  0.00000000E+00  0.00000000E+00  0.00000000E+00
  0.00000000E+00  0.00000000E+00  0.00000000E+00
  0.00000000E+00  0.00000000E+00  0.00000000E+00
  0.00000000E+00  0.00000000E+00  0.00000000E+00
  0.00000000E+00  0.00000000E+00  0.00000000E+00
  0.00000000E+00  0.00000000E+00  0.00000000E+00
  0.00000000E+00  0.00000000E+00  0.00000000E+00
  0.00000000E+00  0.00000000E+00  0.00000000E+00
  0.00000000E+00  0.00000000E+00  0.00000000E+00
  0.00000000E+00  0.00000000E+00  0.00000000E+00
  0.00000000E+00  0.00000000E+00  0.00000000E+00
  0.00000000E+00  0.00000000E+00  0.00000000E+00
  0.00000000E+00  0.00000000E+00  0.00000000E+00
  0.00000000E+00  0.00000000E+00  0.00000000E+00
  0.00000000E+00  0.00000000E+00  0.00000000E+00
  0.00000000E+00  0.00000000E+00  0.00000000E+00
  0.00000000E+00  0.00000000E+00  0.00000000E+00
  0.00000000E+00  0.00000000E+00  0.00000000E+00
  0.00000000E+00  0.00000000E+00  0.00000000E+00
  0.00000000E+00  0.00000000E+00  0.00000000E+00
  0.00000000E+00  0.00000000E+00  0.00000000E+00
  0.00000000E+00  0.00000000E+00  0.00000000E+00
  0.00000000E+00  0.00000000E+00  0.00000000E+00
  0.00000000E+00  0.00000000E+00  0.00000000E+00
  0.00000000E+00  0.00000000E+00  0.00000000E+00
  0.00000000E+00  0.00000000E+00  0.00000000E+00
  0.00000000E+00  0.00000000E+00  0.00000000E+00
  0.00000000E+00  0.00000000E+00  0.00000000E+00
  0.00000000E+00  0.00000000E+00  0.00000000E+00
  0.00000000E+00  0.00000000E+00  0.00000000E+00
  0.00000000E+00  0.00000000E+00  0.00000000E+00
  0.00000000E+00  0.00000000E+00  0.00000000E+00
  0.00000000E+00  0.00000000E+00  0.00000000E+00
  0.00000000E+00  0.00000000E+00  0.00000000E+00
  0.00000000E+00  0.00000000E+00  0.00000000E+00
  0.00000000E+00  0.00000000E+00  0.00000000E+00
  0.00000000E+00  0.00000000E+00  0.00000000E+00
  0.00000000E+00  0.00000000E+00  0.00000000E+00
  0.00000000E+00  0.00000000E+00  0.00000000E+00
  0.00000000E+00  0.00000000E+00  0.00000000E+00
  0.00000000E+00  0.00000000E+00  0.00000000E+00
  0.00000000E+00  0.00000000E+00  0.00000000E+00
  0.00000000E+00  0.00000000E+00  0.00000000E+00
  0.00000000E+00  0.00000000E+00  0.00000000E+00
  0.00000000E+00  0.00000000E+00  0.00000000E+00
  0.00000000E+00  0.00000000E+00  0.00000000E+00
  0.00000000E+00  0.00000000E+00  0.00000000E+00
  0.00000000E+00  0.00000000E+00  0.00000000E+00
  0.00000000E+00  0.00000000E+00  0.00000000E+00
  0.00000000E+00  0.00000000E+00  0.00000000E+00
  0.00000000E+00  0.00000000E+00  0.00000000E+00
  0.00000000E+00  0.00000000E+00  0.00000000E+00
  0.00000000E+00  0.00000000E+00  0.00000000E+00
  0.00000000E+00  0.00000000E+00  0.00000000E+00
  0.00000000E+00  0.00000000E+00  0.00000000E+00
  0.00000000E+00  0.00000000E+00  0.00000000E+00
  0.00000000E+00  0.00000000E+00  0.00000000E+00
  0.00000000E+00  0.00000000E+00  0.00000000E+00
  0.00000000E+00  0.00000000E+00  0.00000000E+00
  0.00000000E+00  0.00000000E+00  0.00000000E+00
  0.00000000E+00  0.00000000E+00  0.00000000E+00
  0.00000000E+00  0.00000000E+00  0.00000000E+00
  0.00000000E+00  0.00000000E+00  0.00000000E+00
  0.00000000E+00  0.00000000E+00  0.00000000E+00
  0.00000000E+00  0.00000000E+00  0.00000000E+00
  0.00000000E+00  0.00000000E+00  0.00000000E+00
  0.00000000E+00  0.00000000E+00  0.00000000E+00
  0.00000000E+00  0.00000000E+00  0.00000000E+00
  0.00000000E+00  0.00000000E+00  0.00000000E+00
  0.00000000E+00  0.00000000E+00  0.00000000E+00
  0.00000000E+00  0.00000000E+00  0.00000000E+00
  0.00000000E+00  0.00000000E+00  0.00000000E+00
  0.00000000E+00  0.00000000E+00  0.00000000E+00
  0.00000000E+00  0.00000000E+00  0.00000000E+00
  0.00000000E+00  0.00000000E+00  0.00000000E+00
  0.00000000E+00  0.00000000E+00  0.00000000E+00
  0.00000000E+00  0.00000000E+00  0.00000000E+00
  0.00000000E+00  0.00000000E+00  0.00000000E+00
  0.00000000E+00  0.00000000E+00  0.00000000E+00
  0.00000000E+00  0.00000000E+00  0.00000000E+00
  0.00000000E+00  0.00000000E+00  0.00000000E+00
  0.00000000E+00  0.00000000E+00  0.00000000E+00
  0.00000000E+00  0.00000000E+00  0.00000000E+00
  0.00000000E+00  0.00000000E+00  0.00000000E+00
  0.00000000E+00  0.00000000E+00  0.00000000E+00
