Primitive Cell                          
   1.00000000000000     
    21.6851403139058370    0.0073941479415474    0.0000000000000000
   -10.8361893738641193   18.7788280992669705    0.0000000000000000
     0.0000000000000000    0.0000000000000000   20.0000000000000000
   O    N    H    C 
     6    18    12    36
Direct
  0.5034167905108404  0.8269437947541718  0.4470989378925481
  0.3160756843433461  0.4909388566409945  0.4488106005930632
  0.1671431194311808  0.6785987686059372  0.4473693017593021
  0.4875413134951714  0.1687972880051518  0.5555180591791853
  0.6748740436381766  0.5058727712443769  0.5494231804267002
  0.8241741555678175  0.3189711455981197  0.5499834716851524
  0.5138054998061605  0.9462558323591992  0.5137808338222456
  0.6534449250575349  0.0468016693720088  0.6235986612847597
  0.5709040514485508  0.1324274916728996  0.5530248737548149
  0.4255772968872193  0.4808987928690414  0.5151700420097143
  0.3871652000320651  0.3403354492542121  0.6236446391398189
  0.5549160115201275  0.4235170480567731  0.5522877133510420
  0.0468785478787339  0.5691640439044576  0.5123064621659879
  0.9444950205171949  0.6077326496856301  0.6203616494520787
  0.8611660735789073  0.4388865084559797  0.5514440803375322
  0.4780706009211499  0.0510538756628378  0.4839479142129832
  0.3380208267525191  0.9495640830891858  0.3743519004762561
  0.4213069584252551  0.8649688512150036  0.4445188844108898
  0.5653488476367414  0.5159284933174249  0.4831619782985186
  0.6037185165395229  0.6552012515452077  0.3732840317728829
  0.4360351353957412  0.5735242444265509  0.4464991153438547
  0.9434199245056689  0.4281129043665715  0.4829068732708492
  0.0449976984795555  0.3899694445493722  0.3734130779936535
  0.1292930455274117  0.5584899180685525  0.4440716863336078
  0.2904780863813201  0.7560415396785487  0.4361629515287575
  0.4574696316107847  0.7037192334248203  0.4371717944050317
  0.2382663634139561  0.5367333064430753  0.4374603933158596
  0.7009125596204200  0.2412468264870427  0.5630359585635318
  0.5333284462112147  0.2928487148029646  0.5632023923663141
  0.7523099638824604  0.4602434535678626  0.5603099813912777
  0.6193411554752259  0.1445437833373120  0.5715700354356485
  0.5190585447963016  0.3756936384799872  0.5723174863337377
  0.8490214358067760  0.4748273433510093  0.5710059236730700
  0.3733408467244956  0.8530263353901759  0.4248524730351377
  0.4718462285469371  0.6214033643071559  0.4265478674892620
  0.1415236320534561  0.5226780588607269  0.4243452601965885
  0.3485257244730633  0.6129068086246079  0.4347239594835202
  0.2763869913836388  0.5936721213578764  0.4343584591007499
  0.2564395350323778  0.6457382601571311  0.4340021613388316
  0.3093253923647055  0.7178843119472020  0.4336456687024537
  0.4005165329496307  0.6848597774610781  0.4342492238867024
  0.3637437024932453  0.5528751105057026  0.4431042097066751
  0.1811931955619244  0.6307499874497324  0.4415606397420504
  0.6422488574794016  0.3838980440989062  0.5642666734025852
  0.7144127929635786  0.4032885219032494  0.5639351855668480
  0.7345809486856112  0.3513972353202988  0.5642338110139349
  0.6818613312302233  0.2792412881223072  0.5654093299321232
  0.5903532242259146  0.3118643648629060  0.5654783207848411
  0.6271352812958355  0.4440031305990502  0.5555551364514315
  0.8097788295561514  0.3666086322676279  0.5555112725332592
  0.5309588054451595  0.0647866903365610  0.5261783114821128
  0.5486024290990201  0.0110860340973247  0.5409169229789654
  0.6057610973019507  0.0271753501768472  0.5863151078583329
  0.5268107337399641  0.4632721426738371  0.5257997372539265
  0.4557175708160699  0.4457846662266363  0.5414517019489509
  0.4149890846436648  0.3883563933173022  0.5866895849200517
  0.9288808613897430  0.4670733396287048  0.5246687986286247
  0.9818700968220568  0.5387645635013030  0.5390724426441906
  0.9648347191251148  0.5797805891538133  0.5836819080561142
  0.3812872709855100  0.7377866522235266  0.4339429259225582
  0.4415453764686745  0.8129824989485783  0.4415507104560348
  0.6098194331714879  0.2590885646841343  0.5657581262929412
  0.5498363074179338  0.1836412308000988  0.5586590992576035
  0.4431258257873694  0.9861554914798845  0.4569165812660714
  0.4609389057054329  0.9325242367017665  0.4715435010819675
  0.3857698837433645  0.9697744316329278  0.4116508373808898
  0.5351651567993443  0.5509722041404288  0.4567738442521900
  0.4641729735454163  0.5336726231176101  0.4726647717226555
  0.5757623152639226  0.6078312693586909  0.4109262180641551
  0.0083937973973676  0.4585736853716682  0.4559932748048325
  0.0614665988703962  0.5302034331648073  0.4706024184408975
  0.0251272343458453  0.4177635397355743  0.4108007296232472
 
  0.00000000E+00  0.00000000E+00  0.00000000E+00
  0.00000000E+00  0.00000000E+00  0.00000000E+00
  0.00000000E+00  0.00000000E+00  0.00000000E+00
  0.00000000E+00  0.00000000E+00  0.00000000E+00
  0.00000000E+00  0.00000000E+00  0.00000000E+00
  0.00000000E+00  0.00000000E+00  0.00000000E+00
  0.00000000E+00  0.00000000E+00  0.00000000E+00
  0.00000000E+00  0.00000000E+00  0.00000000E+00
  0.00000000E+00  0.00000000E+00  0.00000000E+00
  0.00000000E+00  0.00000000E+00  0.00000000E+00
  0.00000000E+00  0.00000000E+00  0.00000000E+00
  0.00000000E+00  0.00000000E+00  0.00000000E+00
  0.00000000E+00  0.00000000E+00  0.00000000E+00
  0.00000000E+00  0.00000000E+00  0.00000000E+00
  0.00000000E+00  0.00000000E+00  0.00000000E+00
  0.00000000E+00  0.00000000E+00  0.00000000E+00
  0.00000000E+00  0.00000000E+00  0.00000000E+00
  0.00000000E+00  0.00000000E+00  0.00000000E+00
  0.00000000E+00  0.00000000E+00  0.00000000E+00
  0.00000000E+00  0.00000000E+00  0.00000000E+00
  0.00000000E+00  0.00000000E+00  0.00000000E+00
  0.00000000E+00  0.00000000E+00  0.00000000E+00
  0.00000000E+00  0.00000000E+00  0.00000000E+00
  0.00000000E+00  0.00000000E+00  0.00000000E+00
  0.00000000E+00  0.00000000E+00  0.00000000E+00
  0.00000000E+00  0.00000000E+00  0.00000000E+00
  0.00000000E+00  0.00000000E+00  0.00000000E+00
  0.00000000E+00  0.00000000E+00  0.00000000E+00
  0.00000000E+00  0.00000000E+00  0.00000000E+00
  0.00000000E+00  0.00000000E+00  0.00000000E+00
  0.00000000E+00  0.00000000E+00  0.00000000E+00
  0.00000000E+00  0.00000000E+00  0.00000000E+00
  0.00000000E+00  0.00000000E+00  0.00000000E+00
  0.00000000E+00  0.00000000E+00  0.00000000E+00
  0.00000000E+00  0.00000000E+00  0.00000000E+00
  0.00000000E+00  0.00000000E+00  0.00000000E+00
  0.00000000E+00  0.00000000E+00  0.00000000E+00
  0.00000000E+00  0.00000000E+00  0.00000000E+00
  0.00000000E+00  0.00000000E+00  0.00000000E+00
  0.00000000E+00  0.00000000E+00  0.00000000E+00
  0.00000000E+00  0.00000000E+00  0.00000000E+00
  0.00000000E+00  0.00000000E+00  0.00000000E+00
  0.00000000E+00  0.00000000E+00  0.00000000E+00
  0.00000000E+00  0.00000000E+00  0.00000000E+00
  0.00000000E+00  0.00000000E+00  0.00000000E+00
  0.00000000E+00  0.00000000E+00  0.00000000E+00
  0.00000000E+00  0.00000000E+00  0.00000000E+00
  0.00000000E+00  0.00000000E+00  0.00000000E+00
  0.00000000E+00  0.00000000E+00  0.00000000E+00
  0.00000000E+00  0.00000000E+00  0.00000000E+00
  0.00000000E+00  0.00000000E+00  0.00000000E+00
  0.00000000E+00  0.00000000E+00  0.00000000E+00
  0.00000000E+00  0.00000000E+00  0.00000000E+00
  0.00000000E+00  0.00000000E+00  0.00000000E+00
  0.00000000E+00  0.00000000E+00  0.00000000E+00
  0.00000000E+00  0.00000000E+00  0.00000000E+00
  0.00000000E+00  0.00000000E+00  0.00000000E+00
  0.00000000E+00  0.00000000E+00  0.00000000E+00
  0.00000000E+00  0.00000000E+00  0.00000000E+00
  0.00000000E+00  0.00000000E+00  0.00000000E+00
  0.00000000E+00  0.00000000E+00  0.00000000E+00
  0.00000000E+00  0.00000000E+00  0.00000000E+00
  0.00000000E+00  0.00000000E+00  0.00000000E+00
  0.00000000E+00  0.00000000E+00  0.00000000E+00
  0.00000000E+00  0.00000000E+00  0.00000000E+00
  0.00000000E+00  0.00000000E+00  0.00000000E+00
  0.00000000E+00  0.00000000E+00  0.00000000E+00
  0.00000000E+00  0.00000000E+00  0.00000000E+00
  0.00000000E+00  0.00000000E+00  0.00000000E+00
  0.00000000E+00  0.00000000E+00  0.00000000E+00
  0.00000000E+00  0.00000000E+00  0.00000000E+00
  0.00000000E+00  0.00000000E+00  0.00000000E+00
