Primitive Cell                          
   1.00000000000000     
    14.7103059417329600    0.0135987921844416    0.0000000000000000
     0.0235845143440263   25.4908180075798860    0.0000000000000000
     0.0000000000000000    0.0000000000000000   20.0000000000000000
   N    C    O    H 
    12    60     6    36
Direct
  0.7589910677627572  0.6982485017772575  0.4629571575698961
  0.0742018940988913  0.5302207857298669  0.4602127256382502
  0.1689564696753934  0.7722917481288931  0.4601111509429430
  0.7407055407435053  0.7994901922030024  0.5127673285188195
  0.4330573743385315  0.9710088441300542  0.5132285134369994
  0.3290799792237280  0.7312945967926296  0.5126677284711079
  0.2593932197135587  0.1985661236878258  0.4629418232317519
  0.5746370546802808  0.0303123561309704  0.4607419990009092
  0.6694280641458690  0.2720306554467484  0.4620835607819629
  0.2410163334432838  0.2993476046017491  0.5143373163307245
  0.9333887142416728  0.4712672271812650  0.5143480534202638
  0.8294135043319955  0.2312433542155716  0.5149923954454323
  0.0842780297189734  0.6943763144556172  0.4885411276585927
  0.0833335016742467  0.6394457089371173  0.4884154586260863
  0.0006899588436298  0.6119634629716160  0.4890952370866017
  0.9187962691810441  0.6400285799594414  0.4895959415783793
  0.9187341774959989  0.6951220291497080  0.4896077630877116
  0.0016216681554653  0.7219956009097928  0.4889956072007422
  0.4155606424287583  0.8085331405151308  0.4868699296818377
  0.4204208604339428  0.8633263568392877  0.4871015823491476
  0.5050087771019918  0.8890067015710201  0.4865476248119336
  0.5848262013738648  0.8591210601561698  0.4873459348574301
  0.5812756727380517  0.8039599383943354  0.4872998026791180
  0.4965875440721206  0.7791208612351923  0.4879531946441134
  0.6679753955269803  0.7744136058397473  0.4870031989232046
  0.8310883188956666  0.7235057818972805  0.4886811847815551
  0.6788953421997803  0.7230653363765285  0.4610625610425956
  0.6048737328455758  0.6908040025966926  0.4273528635731054
  0.5757344741735437  0.7081643835941662  0.3584554375538929
  0.5059848409854126  0.9470430809632404  0.4859097508425805
  0.0017252373727743  0.5539914128644483  0.4879268812975610
  0.5767302121665807  0.9779026662891042  0.4583888405005467
  0.6598226533196865  0.9565474135085381  0.4219489480715168
  0.6433315375277644  0.9331082913436148  0.3537356506060334
  0.3281158126262653  0.7799199878193548  0.4859831215602526
  0.1704869122080055  0.7239672721273607  0.4870730278066446
  0.2462248385905639  0.7998033313583335  0.4585090674874550
  0.2358580587463592  0.8524192405310487  0.4232256767476343
  0.2782820966800799  0.8568908872630416  0.3547749738701569
  0.8204523931977405  0.7749398206044020  0.5133349657941935
  0.9307348846952337  0.5233788852354024  0.5145580315226894
  0.2524975439603239  0.7037653739630869  0.5129124156240792
  0.5846168496378610  0.1941624700439917  0.4901584324074690
  0.5835584352394889  0.1392423221529029  0.4897909679478261
  0.5008306401147422  0.1118427851085215  0.4898607000940700
  0.4189660746642971  0.1399507038503600  0.4900581328269524
  0.4189900087129956  0.1950373574319784  0.4904397544151848
  0.5019796798039877  0.2218339773702169  0.4903792200899773
  0.9158897818979383  0.3085072016880659  0.4888559407653617
  0.9206300347053897  0.3633173077176792  0.4890005110340780
  0.0051496180440367  0.3890640941687522  0.4880545050461365
  0.0850338033260201  0.3592255428902646  0.4887246048413871
  0.0816214002602464  0.3040634839157477  0.4886507156504862
  0.9969873736960579  0.2791483869913165  0.4895698100712238
  0.1683870263031224  0.2745582040629060  0.4880102389997347
  0.3313797190227490  0.2234943038247081  0.4894015077446738
  0.1793958539316662  0.2234937674881650  0.4611705161497142
  0.1053269476678764  0.1918616384048661  0.4265788657078318
  0.0763272121141938  0.2104070640913491  0.3581459316298137
  0.0060270686454587  0.4471108918408504  0.4868950694741301
  0.5018046261679103  0.0538914461204882  0.4882109631309959
  0.0764051324944219  0.4777935889018607  0.4585910215666047
  0.1593541803267158  0.4562234542551025  0.4221911033854298
  0.1427621515582658  0.4322402916222430  0.3543008224599191
  0.8284615315149821  0.2798445493833270  0.4882479510394546
  0.6709019879822193  0.2237176091202997  0.4890557331334620
  0.7465476654218790  0.2996610156677377  0.4607593041386693
  0.7357578999331977  0.3524168946396600  0.4259228213826773
  0.7766220223343510  0.3570695696206059  0.3569915432673554
  0.3207173318294139  0.2747159740281830  0.5147674349268456
  0.4304543893316577  0.0231207984534976  0.5140018104883097
  0.7528463793211984  0.2036552600170012  0.5151859290259893
  0.5762592088460750  0.6511716736560516  0.4545857382265339
  0.7354788334825599  0.9617589114761458  0.4464015769123293
  0.1902675891534429  0.8871932746273430  0.4488548279074109
  0.0764464633637303  0.1518535140770112  0.4527564598906082
  0.2350807081920578  0.4616606387513471  0.4464479419157072
  0.6910591288174999  0.3871778242354935  0.4524245405121263
  0.8534238533790770  0.6199864266597572  0.4880179658077495
  0.0040629861735795  0.7647080993569446  0.4870245336683823
  0.1462210232794092  0.6168382618197015  0.4859254557437751
  0.6515468676364193  0.8774769678039220  0.4902233635284645
  0.4907037555505838  0.7366160129012584  0.4914460790302471
  0.3594668617971521  0.8875656646539554  0.4898945888540354
  0.5626923071395282  0.7506135558822606  0.3568608183692916
  0.6321651384722458  0.7002031078320172  0.3236226158950117
  0.5155456543363286  0.6862103811785616  0.3425229089809605
  0.5859946857223477  0.9055357805414204  0.3545805598031109
  0.6245331891417223  0.9651783842931820  0.3194113357634834
  0.7051059279537739  0.9138035894327317  0.3354362690228569
  0.3485471383898684  0.8421540698466927  0.3548284499526630
  0.2393287005211562  0.8318544702181967  0.3202024114056954
  0.2757156039661766  0.8976194487774265  0.3373568122513504
  0.8775454592107224  0.7965306013407485  0.5347973011832039
  0.8708941488416286  0.5414470863548146  0.5374060653211714
  0.2559546525960315  0.6646708502162610  0.5352043709168655
  0.3536120726060688  0.1199233643768025  0.4879746544119499
  0.5045275424899600  0.2645476002295268  0.4886316471895356
  0.6464167867585644  0.1165792915274722  0.4875432221787861
  0.1517014786995361  0.3776487711477117  0.4914514498428488
  0.9912612398829594  0.2366270250040969  0.4929400044408823
  0.8596414082164188  0.3875193659327465  0.4919707545449867
  0.0640733488007257  0.2529451442907060  0.3575659019358284
  0.1325457444165821  0.2026013630070267  0.3230714124071881
  0.0157088476655147  0.1890648857013559  0.3417420332982104
  0.0856196399837188  0.4045495723382189  0.3556217652210165
  0.1236534169232826  0.4639955300884466  0.3196008407602591
  0.2045985570210931  0.4129106892138452  0.3361530284353549
  0.8469286575472026  0.3423903706811799  0.3562106116661568
  0.7370366793690266  0.3320599012649552  0.3227762730589347
  0.7736065374154961  0.3978351199927346  0.3397473669153257
  0.3777535081803762  0.2960539796366746  0.5367252749608866
  0.3703475441809019  0.0410574235951913  0.5366261110189470
  0.7563014725391781  0.1645925318697792  0.5375899728916593
 
  0.00000000E+00  0.00000000E+00  0.00000000E+00
  0.00000000E+00  0.00000000E+00  0.00000000E+00
  0.00000000E+00  0.00000000E+00  0.00000000E+00
  0.00000000E+00  0.00000000E+00  0.00000000E+00
  0.00000000E+00  0.00000000E+00  0.00000000E+00
  0.00000000E+00  0.00000000E+00  0.00000000E+00
  0.00000000E+00  0.00000000E+00  0.00000000E+00
  0.00000000E+00  0.00000000E+00  0.00000000E+00
  0.00000000E+00  0.00000000E+00  0.00000000E+00
  0.00000000E+00  0.00000000E+00  0.00000000E+00
  0.00000000E+00  0.00000000E+00  0.00000000E+00
  0.00000000E+00  0.00000000E+00  0.00000000E+00
  0.00000000E+00  0.00000000E+00  0.00000000E+00
  0.00000000E+00  0.00000000E+00  0.00000000E+00
  0.00000000E+00  0.00000000E+00  0.00000000E+00
  0.00000000E+00  0.00000000E+00  0.00000000E+00
  0.00000000E+00  0.00000000E+00  0.00000000E+00
  0.00000000E+00  0.00000000E+00  0.00000000E+00
  0.00000000E+00  0.00000000E+00  0.00000000E+00
  0.00000000E+00  0.00000000E+00  0.00000000E+00
  0.00000000E+00  0.00000000E+00  0.00000000E+00
  0.00000000E+00  0.00000000E+00  0.00000000E+00
  0.00000000E+00  0.00000000E+00  0.00000000E+00
  0.00000000E+00  0.00000000E+00  0.00000000E+00
  0.00000000E+00  0.00000000E+00  0.00000000E+00
  0.00000000E+00  0.00000000E+00  0.00000000E+00
  0.00000000E+00  0.00000000E+00  0.00000000E+00
  0.00000000E+00  0.00000000E+00  0.00000000E+00
  0.00000000E+00  0.00000000E+00  0.00000000E+00
  0.00000000E+00  0.00000000E+00  0.00000000E+00
  0.00000000E+00  0.00000000E+00  0.00000000E+00
  0.00000000E+00  0.00000000E+00  0.00000000E+00
  0.00000000E+00  0.00000000E+00  0.00000000E+00
  0.00000000E+00  0.00000000E+00  0.00000000E+00
  0.00000000E+00  0.00000000E+00  0.00000000E+00
  0.00000000E+00  0.00000000E+00  0.00000000E+00
  0.00000000E+00  0.00000000E+00  0.00000000E+00
  0.00000000E+00  0.00000000E+00  0.00000000E+00
  0.00000000E+00  0.00000000E+00  0.00000000E+00
  0.00000000E+00  0.00000000E+00  0.00000000E+00
  0.00000000E+00  0.00000000E+00  0.00000000E+00
  0.00000000E+00  0.00000000E+00  0.00000000E+00
  0.00000000E+00  0.00000000E+00  0.00000000E+00
  0.00000000E+00  0.00000000E+00  0.00000000E+00
  0.00000000E+00  0.00000000E+00  0.00000000E+00
  0.00000000E+00  0.00000000E+00  0.00000000E+00
  0.00000000E+00  0.00000000E+00  0.00000000E+00
  0.00000000E+00  0.00000000E+00  0.00000000E+00
  0.00000000E+00  0.00000000E+00  0.00000000E+00
  0.00000000E+00  0.00000000E+00  0.00000000E+00
  0.00000000E+00  0.00000000E+00  0.00000000E+00
  0.00000000E+00  0.00000000E+00  0.00000000E+00
  0.00000000E+00  0.00000000E+00  0.00000000E+00
  0.00000000E+00  0.00000000E+00  0.00000000E+00
  0.00000000E+00  0.00000000E+00  0.00000000E+00
  0.00000000E+00  0.00000000E+00  0.00000000E+00
  0.00000000E+00  0.00000000E+00  0.00000000E+00
  0.00000000E+00  0.00000000E+00  0.00000000E+00
  0.00000000E+00  0.00000000E+00  0.00000000E+00
  0.00000000E+00  0.00000000E+00  0.00000000E+00
  0.00000000E+00  0.00000000E+00  0.00000000E+00
  0.00000000E+00  0.00000000E+00  0.00000000E+00
  0.00000000E+00  0.00000000E+00  0.00000000E+00
  0.00000000E+00  0.00000000E+00  0.00000000E+00
  0.00000000E+00  0.00000000E+00  0.00000000E+00
  0.00000000E+00  0.00000000E+00  0.00000000E+00
  0.00000000E+00  0.00000000E+00  0.00000000E+00
  0.00000000E+00  0.00000000E+00  0.00000000E+00
  0.00000000E+00  0.00000000E+00  0.00000000E+00
  0.00000000E+00  0.00000000E+00  0.00000000E+00
  0.00000000E+00  0.00000000E+00  0.00000000E+00
  0.00000000E+00  0.00000000E+00  0.00000000E+00
  0.00000000E+00  0.00000000E+00  0.00000000E+00
  0.00000000E+00  0.00000000E+00  0.00000000E+00
  0.00000000E+00  0.00000000E+00  0.00000000E+00
  0.00000000E+00  0.00000000E+00  0.00000000E+00
  0.00000000E+00  0.00000000E+00  0.00000000E+00
  0.00000000E+00  0.00000000E+00  0.00000000E+00
  0.00000000E+00  0.00000000E+00  0.00000000E+00
  0.00000000E+00  0.00000000E+00  0.00000000E+00
  0.00000000E+00  0.00000000E+00  0.00000000E+00
  0.00000000E+00  0.00000000E+00  0.00000000E+00
  0.00000000E+00  0.00000000E+00  0.00000000E+00
  0.00000000E+00  0.00000000E+00  0.00000000E+00
  0.00000000E+00  0.00000000E+00  0.00000000E+00
  0.00000000E+00  0.00000000E+00  0.00000000E+00
  0.00000000E+00  0.00000000E+00  0.00000000E+00
  0.00000000E+00  0.00000000E+00  0.00000000E+00
  0.00000000E+00  0.00000000E+00  0.00000000E+00
  0.00000000E+00  0.00000000E+00  0.00000000E+00
  0.00000000E+00  0.00000000E+00  0.00000000E+00
  0.00000000E+00  0.00000000E+00  0.00000000E+00
  0.00000000E+00  0.00000000E+00  0.00000000E+00
  0.00000000E+00  0.00000000E+00  0.00000000E+00
  0.00000000E+00  0.00000000E+00  0.00000000E+00
  0.00000000E+00  0.00000000E+00  0.00000000E+00
  0.00000000E+00  0.00000000E+00  0.00000000E+00
  0.00000000E+00  0.00000000E+00  0.00000000E+00
  0.00000000E+00  0.00000000E+00  0.00000000E+00
  0.00000000E+00  0.00000000E+00  0.00000000E+00
  0.00000000E+00  0.00000000E+00  0.00000000E+00
  0.00000000E+00  0.00000000E+00  0.00000000E+00
  0.00000000E+00  0.00000000E+00  0.00000000E+00
  0.00000000E+00  0.00000000E+00  0.00000000E+00
  0.00000000E+00  0.00000000E+00  0.00000000E+00
  0.00000000E+00  0.00000000E+00  0.00000000E+00
  0.00000000E+00  0.00000000E+00  0.00000000E+00
  0.00000000E+00  0.00000000E+00  0.00000000E+00
  0.00000000E+00  0.00000000E+00  0.00000000E+00
  0.00000000E+00  0.00000000E+00  0.00000000E+00
  0.00000000E+00  0.00000000E+00  0.00000000E+00
  0.00000000E+00  0.00000000E+00  0.00000000E+00
  0.00000000E+00  0.00000000E+00  0.00000000E+00
  0.00000000E+00  0.00000000E+00  0.00000000E+00
