Primitive Cell                          
   1.00000000000000     
    14.1412232633281150   -0.0530909872217287    0.0000000000000000
    -7.1078025234530680   13.0198954221136489    0.0000000000000000
     0.0000000000000000    0.0000000000000000   20.0000000000000000
   N    H    C    O 
     6    12    30    12
Direct
  0.5720833221823085  0.4987609420264008  0.4393110555733770
  0.9374461900833069  0.5433041823184368  0.4696598784135944
  0.6322579991536088  0.0603846532387706  0.4820423417985609
  0.0728644087641896  0.5070007196978494  0.5490516904762046
  0.4395199208400129  0.9406699475585967  0.5459824447702317
  0.3844712100245431  0.4445487912294865  0.5059940461019039
  0.7912191678465916  0.2502195368892899  0.5182820601257276
  0.7415818290418414  0.5116716250780797  0.4836906210430314
  0.4708145157573398  0.2053219407974183  0.4881999533439227
  0.2697639773050540  0.7920839805142919  0.5083993130377280
  0.2273501819689514  0.4857323464681258  0.4877889213135091
  0.5472035310743308  0.7448188165122929  0.4948853593582996
  0.0600248363637377  0.7436487348802316  0.3401482275969343
  0.6703856279285816  0.8464437349062806  0.3758127016888864
  0.4271783091388102  0.5883087173574353  0.3495083790520894
  0.0832905652355720  0.4326933225211178  0.6227843443074548
  0.3392659961069739  0.9409831240061735  0.6107729922646570
  0.2806162257223690  0.3432691416127724  0.5708837114195191
  0.4205709483081463  0.3766283228779130  0.5005198014001522
  0.3353504222504782  0.2696332608177698  0.5224462430223795
  0.5967345173871124  0.3628845415488939  0.4850989048524568
  0.5569112706310690  0.2570781699099669  0.4931104137323388
  0.6269406974353018  0.2171939670909779  0.5053218442829532
  0.7378664349808872  0.2827868308693056  0.5096176986684071
  0.7789018629474214  0.3894736429634378  0.5034974797745377
  0.7088470797878941  0.4289248920714783  0.4897368705617637
  0.3918864214197484  0.6087577457744189  0.4872296562976572
  0.4601801973549300  0.7153524094786903  0.4929713958459203
  0.4164716941956925  0.7817971990521144  0.5006145772699213
  0.3036421237148446  0.7404936567670433  0.5025762291644895
  0.2350898039650176  0.6342941454589734  0.4984338829133890
  0.2798549961352350  0.5686793226321214  0.4911465830138226
  0.0435473383745943  0.6066566412362491  0.4682766596322381
  0.1159148934721017  0.5849846020505751  0.5052934729080221
  0.0791769985027031  0.7015444961211657  0.4258184146812241
  0.5866667507188765  0.9580260023204090  0.4809002087699810
  0.4830302322676587  0.8946985232037790  0.5088862364075268
  0.6562852602104101  0.9159744204071316  0.4521728502269724
  0.5256012001238588  0.5579421933765474  0.4361585157990078
  0.4355076803451254  0.5373893642531158  0.4769919317574107
  0.5714201833320089  0.6447734777702365  0.3858629534235405
  0.8954469879838882  0.4608275087341269  0.5103838783783630
  0.9658999269298647  0.4485824503312799  0.5554118788230866
  0.9333077083810508  0.3787204080418718  0.6164428361329755
  0.5815896443564981  0.1052142811791725  0.5133584707070540
  0.4877500833805968  0.0430376002387476  0.5512988538314332
  0.4386201517806754  0.0817701264091966  0.6041285882402576
  0.5265690455008496  0.4097654256085974  0.4738464337968438
  0.3264148516774767  0.1895169949003304  0.5000815708356825
  0.1371399709166994  0.7888775576427989  0.4460801262309602
  0.0375303547003867  0.6782190021728596  0.3634855049944932
  0.7249427271478979  0.9102305800884807  0.4859704039561734
  0.6315799748008146  0.8847056073460564  0.3884190963264729
  0.6656114628303911  0.7114827211131782  0.3839790489180999
  0.4995111848687444  0.6455101242918175  0.3411632321617759
  0.8412061980332695  0.3278118506246699  0.6364865089791891
  0.0191194760817908  0.3817347612370554  0.6480572577024830
  0.4761493222349955  0.1713173901867364  0.6210734867924685
  0.3498678024384034  0.0051983777547591  0.6327298262344954
  0.2634973035564343  0.2706931464329188  0.5661686627059481
 
  0.00000000E+00  0.00000000E+00  0.00000000E+00
  0.00000000E+00  0.00000000E+00  0.00000000E+00
  0.00000000E+00  0.00000000E+00  0.00000000E+00
  0.00000000E+00  0.00000000E+00  0.00000000E+00
  0.00000000E+00  0.00000000E+00  0.00000000E+00
  0.00000000E+00  0.00000000E+00  0.00000000E+00
  0.00000000E+00  0.00000000E+00  0.00000000E+00
  0.00000000E+00  0.00000000E+00  0.00000000E+00
  0.00000000E+00  0.00000000E+00  0.00000000E+00
  0.00000000E+00  0.00000000E+00  0.00000000E+00
  0.00000000E+00  0.00000000E+00  0.00000000E+00
  0.00000000E+00  0.00000000E+00  0.00000000E+00
  0.00000000E+00  0.00000000E+00  0.00000000E+00
  0.00000000E+00  0.00000000E+00  0.00000000E+00
  0.00000000E+00  0.00000000E+00  0.00000000E+00
  0.00000000E+00  0.00000000E+00  0.00000000E+00
  0.00000000E+00  0.00000000E+00  0.00000000E+00
  0.00000000E+00  0.00000000E+00  0.00000000E+00
  0.00000000E+00  0.00000000E+00  0.00000000E+00
  0.00000000E+00  0.00000000E+00  0.00000000E+00
  0.00000000E+00  0.00000000E+00  0.00000000E+00
  0.00000000E+00  0.00000000E+00  0.00000000E+00
  0.00000000E+00  0.00000000E+00  0.00000000E+00
  0.00000000E+00  0.00000000E+00  0.00000000E+00
  0.00000000E+00  0.00000000E+00  0.00000000E+00
  0.00000000E+00  0.00000000E+00  0.00000000E+00
  0.00000000E+00  0.00000000E+00  0.00000000E+00
  0.00000000E+00  0.00000000E+00  0.00000000E+00
  0.00000000E+00  0.00000000E+00  0.00000000E+00
  0.00000000E+00  0.00000000E+00  0.00000000E+00
  0.00000000E+00  0.00000000E+00  0.00000000E+00
  0.00000000E+00  0.00000000E+00  0.00000000E+00
  0.00000000E+00  0.00000000E+00  0.00000000E+00
  0.00000000E+00  0.00000000E+00  0.00000000E+00
  0.00000000E+00  0.00000000E+00  0.00000000E+00
  0.00000000E+00  0.00000000E+00  0.00000000E+00
  0.00000000E+00  0.00000000E+00  0.00000000E+00
  0.00000000E+00  0.00000000E+00  0.00000000E+00
  0.00000000E+00  0.00000000E+00  0.00000000E+00
  0.00000000E+00  0.00000000E+00  0.00000000E+00
  0.00000000E+00  0.00000000E+00  0.00000000E+00
  0.00000000E+00  0.00000000E+00  0.00000000E+00
  0.00000000E+00  0.00000000E+00  0.00000000E+00
  0.00000000E+00  0.00000000E+00  0.00000000E+00
  0.00000000E+00  0.00000000E+00  0.00000000E+00
  0.00000000E+00  0.00000000E+00  0.00000000E+00
  0.00000000E+00  0.00000000E+00  0.00000000E+00
  0.00000000E+00  0.00000000E+00  0.00000000E+00
  0.00000000E+00  0.00000000E+00  0.00000000E+00
  0.00000000E+00  0.00000000E+00  0.00000000E+00
  0.00000000E+00  0.00000000E+00  0.00000000E+00
  0.00000000E+00  0.00000000E+00  0.00000000E+00
  0.00000000E+00  0.00000000E+00  0.00000000E+00
  0.00000000E+00  0.00000000E+00  0.00000000E+00
  0.00000000E+00  0.00000000E+00  0.00000000E+00
  0.00000000E+00  0.00000000E+00  0.00000000E+00
  0.00000000E+00  0.00000000E+00  0.00000000E+00
  0.00000000E+00  0.00000000E+00  0.00000000E+00
  0.00000000E+00  0.00000000E+00  0.00000000E+00
  0.00000000E+00  0.00000000E+00  0.00000000E+00
