Primitive Cell                          
   1.00000000000000     
    14.7063142888133953    0.0047519944948824    0.0000000000000000
    -7.3490410563444772   12.7262633525972895    0.0000000000000000
     0.0000000000000000    0.0000000000000000   20.0000000000000107
   C    N    H 
    27     9     9
Direct
  0.7517078562418007  0.3800999024674852  0.4869662833225519
  0.6966110834310157  0.4349140478102100  0.4871218103895529
  0.6965911946799679  0.2701667284521108  0.4870901528474931
  0.8686851275805765  0.4385776745219943  0.4863582162191591
  0.9268371354367062  0.4674239234833593  0.5461376657578967
  0.5867667460515591  0.3801741642166263  0.4871265478402194
  0.5867439334104034  0.2150320654673905  0.4870778476412667
  0.5320576824743171  0.2702527602549836  0.4872346093407813
  0.5280552684488526  0.0979507192197815  0.4864825764544065
  0.5281284680608564  0.4385934590911731  0.4865702670487195
  0.4986017245087311  0.0397045578299924  0.5462445989921605
  0.4989581553621889  0.4676369026936342  0.5463376513478053
  0.1982587167032150  0.6032515049364022  0.4874736666074924
  0.2533427419655681  0.5484814408286027  0.4874377381374373
  0.3631380930585806  0.6033097873314048  0.4875345099760864
  0.4178855483277033  0.7131852962566541  0.4873952199866025
  0.3630411534151108  0.7681988374623998  0.4874661864467811
  0.2532493816452899  0.7131267416879368  0.4874038866940182
  0.4214073314148195  0.8851985796105168  0.4876871962149565
  0.4507747350436802  0.9439332737394324  0.4275809817138381
  0.4243504704201086  0.8919548256179937  0.3638272510394529
  0.4215742478778424  0.5447619734971951  0.4877812230419138
  0.4507580285365478  0.5152325509557940  0.4276778219554274
  0.4243518514226068  0.5407930858827683  0.3639241094733876
  0.0813188690921152  0.5447276954967180  0.4876445418590052
  0.0226526447008482  0.5156185562019786  0.4275428103660701
  0.0743501541941356  0.5414768731867099  0.3637469662140873
  0.9169622527441632  0.4628396650846867  0.4268774452077508
  0.5038817414673105  0.0497042435787165  0.4269759470514103
  0.5037510870306576  0.4624826987369062  0.4270786643672011
  0.4022237082296556  0.8488826023572784  0.3122689626528654
  0.4023782793966078  0.5618702481820321  0.3123652390653220
  0.1166156579801694  0.5624691131186950  0.3119424305748950
  0.4459659381212759  0.9346468077815189  0.5469422153827779
  0.4463526672977380  0.5200586287097408  0.5470226619754754
  0.0317863122198645  0.5197318963675315  0.5468558418398075
  0.7394318953305685  0.2273091915491960  0.4862182207390333
  0.7394616057695274  0.5206299167213047  0.4862495685002131
  0.8871901838915548  0.4475771665496922  0.5946232108231015
  0.5035297170318245  0.7560763615405222  0.4873690946491962
  0.5182449504359212  0.0793588518394444  0.5947383291161756
  0.5187684942878192  0.4478164818115999  0.5948371514079440
  0.4464058997539126  0.2274302304387916  0.4864300938276997
  0.2104360584533538  0.7560078625421767  0.4874410462688701
  0.2105502070529255  0.4627771048889144  0.4874505103917528
 
  0.00000000E+00  0.00000000E+00  0.00000000E+00
  0.00000000E+00  0.00000000E+00  0.00000000E+00
  0.00000000E+00  0.00000000E+00  0.00000000E+00
  0.00000000E+00  0.00000000E+00  0.00000000E+00
  0.00000000E+00  0.00000000E+00  0.00000000E+00
  0.00000000E+00  0.00000000E+00  0.00000000E+00
  0.00000000E+00  0.00000000E+00  0.00000000E+00
  0.00000000E+00  0.00000000E+00  0.00000000E+00
  0.00000000E+00  0.00000000E+00  0.00000000E+00
  0.00000000E+00  0.00000000E+00  0.00000000E+00
  0.00000000E+00  0.00000000E+00  0.00000000E+00
  0.00000000E+00  0.00000000E+00  0.00000000E+00
  0.00000000E+00  0.00000000E+00  0.00000000E+00
  0.00000000E+00  0.00000000E+00  0.00000000E+00
  0.00000000E+00  0.00000000E+00  0.00000000E+00
  0.00000000E+00  0.00000000E+00  0.00000000E+00
  0.00000000E+00  0.00000000E+00  0.00000000E+00
  0.00000000E+00  0.00000000E+00  0.00000000E+00
  0.00000000E+00  0.00000000E+00  0.00000000E+00
  0.00000000E+00  0.00000000E+00  0.00000000E+00
  0.00000000E+00  0.00000000E+00  0.00000000E+00
  0.00000000E+00  0.00000000E+00  0.00000000E+00
  0.00000000E+00  0.00000000E+00  0.00000000E+00
  0.00000000E+00  0.00000000E+00  0.00000000E+00
  0.00000000E+00  0.00000000E+00  0.00000000E+00
  0.00000000E+00  0.00000000E+00  0.00000000E+00
  0.00000000E+00  0.00000000E+00  0.00000000E+00
  0.00000000E+00  0.00000000E+00  0.00000000E+00
  0.00000000E+00  0.00000000E+00  0.00000000E+00
  0.00000000E+00  0.00000000E+00  0.00000000E+00
  0.00000000E+00  0.00000000E+00  0.00000000E+00
  0.00000000E+00  0.00000000E+00  0.00000000E+00
  0.00000000E+00  0.00000000E+00  0.00000000E+00
  0.00000000E+00  0.00000000E+00  0.00000000E+00
  0.00000000E+00  0.00000000E+00  0.00000000E+00
  0.00000000E+00  0.00000000E+00  0.00000000E+00
  0.00000000E+00  0.00000000E+00  0.00000000E+00
  0.00000000E+00  0.00000000E+00  0.00000000E+00
  0.00000000E+00  0.00000000E+00  0.00000000E+00
  0.00000000E+00  0.00000000E+00  0.00000000E+00
  0.00000000E+00  0.00000000E+00  0.00000000E+00
  0.00000000E+00  0.00000000E+00  0.00000000E+00
  0.00000000E+00  0.00000000E+00  0.00000000E+00
  0.00000000E+00  0.00000000E+00  0.00000000E+00
  0.00000000E+00  0.00000000E+00  0.00000000E+00
