Primitive Cell                          
   1.00000000000000     
    29.4444472245861064    0.0000000000000000    0.0000000000000000
   -14.7222236122930532   25.4996392968817673    0.0000000000000000
     0.0000000000000000    0.0000000000000000   20.0000000000000000
   C    N    H 
    60    18    48
Direct
  0.0276643692037410  0.5138321846018741  0.5659964676293541
  0.0276610274572704  0.5138305137286423  0.4427946354006380
  0.0544816311878975  0.5272408155939416  0.5043901015736125
  0.3591084356788912  0.7182168713577752  0.5033049560940412
  0.3591084356788912  0.6408915643211088  0.5033049560940412
  0.2817831286422248  0.6408915643211088  0.5033049560940412
  0.3881230186857039  0.6118769813142961  0.5034794545439922
  0.4432281537200708  0.6390374078685213  0.5036344770584762
  0.4704333053625405  0.6116207004343437  0.5040007437481790
  0.4435548601318544  0.5564451398681456  0.5042187076495992
  0.3883792995656563  0.5295666946374595  0.5040007437481790
  0.3609625921314787  0.5567718462799292  0.5036344770584762
  0.3881230186857039  0.7762460373713864  0.5034794545439922
  0.4432281537200708  0.8041907458515354  0.5036344770584762
  0.4704333053625405  0.8588126049282110  0.5040007437481790
  0.4435548601318544  0.8871097202637017  0.5042187076495992
  0.3883792995656563  0.8588126049282110  0.5040007437481790
  0.3609625921314787  0.8041907458515354  0.5036344770584762
  0.2237539626286136  0.6118769813142961  0.5034794545439922
  0.1958092541484646  0.6390374078685213  0.5036344770584762
  0.1411873950717890  0.6116207004343437  0.5040007437481790
  0.1128902797362983  0.5564451398681456  0.5042187076495992
  0.1411873950717890  0.5295666946374595  0.5040007437481790
  0.1958092541484646  0.5567718462799292  0.5036344770584762
  0.6408915643211088  0.2817831286422248  0.5033049560940412
  0.6408915643211088  0.3591084356788912  0.5033049560940412
  0.7182168713577752  0.3591084356788912  0.5033049560940412
  0.6118769813142961  0.3881230186857039  0.5034794545439922
  0.5567718462799292  0.3609625921314787  0.5036344770584762
  0.5295666946374595  0.3883792995656563  0.5040007437481790
  0.5564451398681456  0.4435548601318544  0.5042187076495992
  0.6116207004343437  0.4704333053625405  0.5040007437481790
  0.6390374078685213  0.4432281537200708  0.5036344770584762
  0.6118769813142961  0.2237539626286136  0.5034794545439922
  0.5567718462799292  0.1958092541484646  0.5036344770584762
  0.5295666946374595  0.1411873950717890  0.5040007437481790
  0.5564451398681456  0.1128902797362983  0.5042187076495992
  0.6116207004343437  0.1411873950717890  0.5040007437481790
  0.6390374078685213  0.1958092541484646  0.5036344770584762
  0.7762460373713864  0.3881230186857039  0.5034794545439922
  0.8041907458515354  0.3609625921314787  0.5036344770584762
  0.8588126049282110  0.3883792995656563  0.5040007437481790
  0.8871097202637017  0.4435548601318544  0.5042187076495992
  0.8588126049282110  0.4704333053625405  0.5040007437481790
  0.8041907458515354  0.4432281537200708  0.5036344770584762
  0.5272408155939416  0.4727591844060584  0.5043901015736125
  0.5138321846018741  0.4861678153981259  0.5659964676293541
  0.4861678153981259  0.5138321846018741  0.5659964676293541
  0.4727591844060584  0.5272408155939416  0.5043901015736125
  0.5272408155939416  0.0544816311878975  0.5043901015736125
  0.5138321846018741  0.0276643692037410  0.5659964676293541
  0.4861678153981259  0.9723356307962590  0.5659964676293541
  0.4727591844060584  0.9455183688121096  0.5043901015736125
  0.9455183688121096  0.4727591844060584  0.5043901015736125
  0.9723356307962590  0.4861678153981259  0.5659964676293541
  0.4861694862713577  0.5138305137286423  0.4427946354006380
  0.5138305137286423  0.4861694862713577  0.4427946354006380
  0.4861694862713577  0.9723389725427296  0.4427946354006380
  0.5138305137286423  0.0276610274572704  0.4427946354006380
  0.9723389725427296  0.4861694862713577  0.4427946354006380
  0.0559543852987900  0.5279771926493950  0.6256551091282248
  0.0559472258769773  0.5279736129384887  0.3831478365343202
  0.3872165611665324  0.6936082805832555  0.5033015430106715
  0.3063917194167445  0.6127834388334676  0.5033015430106715
  0.3063917194167445  0.6936082805832555  0.5033015430106715
  0.6127834388334676  0.3063917194167445  0.5033015430106715
  0.6936082805832555  0.3872165611665324  0.5033015430106715
  0.6936082805832555  0.3063917194167445  0.5033015430106715
  0.4720228073506050  0.5279771926493950  0.6256551091282248
  0.5279771926493950  0.4720228073506050  0.6256551091282248
  0.4720228073506050  0.9440456147012100  0.6256551091282248
  0.5279771926493950  0.0559543852987900  0.6256551091282248
  0.9440456147012100  0.4720228073506050  0.6256551091282248
  0.4720263870615113  0.5279736129384887  0.3831478365343202
  0.5279736129384887  0.4720263870615113  0.3831478365343202
  0.4720263870615113  0.9440527741230227  0.3831478365343202
  0.5279736129384887  0.0559472258769773  0.3831478365343202
  0.9440527741230227  0.4720263870615113  0.3831478365343202
  0.0387285790101828  0.5193642895050985  0.6708567919661093
  0.0386844744939125  0.5193422372469527  0.3379647639272534
  0.5132349117650747  0.8804688302341148  0.5041072417190833
  0.4640872632773991  0.7823262412879544  0.5034767434106158
  0.3672339184690401  0.8804688302341148  0.5041072417190833
  0.3182389780105552  0.7823262412879544  0.5034767434106158
  0.2176737587120456  0.6817610219894448  0.5034767434106158
  0.1195311697658852  0.6327660815309599  0.5041072417190833
  0.2176737587120456  0.5359127367226009  0.5034767434106158
  0.1195311697658852  0.4867650882349253  0.5041072417190833
  0.3182389780105552  0.5359127367226009  0.5034767434106158
  0.3672339184690401  0.4867650882349253  0.5041072417190833
  0.5132349117650747  0.6327660815309599  0.5041072417190833
  0.4640872632773991  0.6817610219894448  0.5034767434106158
  0.4867650882349253  0.1195311697658852  0.5041072417190833
  0.5359127367226009  0.2176737587120456  0.5034767434106158
  0.6327660815309599  0.1195311697658852  0.5041072417190833
  0.6817610219894448  0.2176737587120456  0.5034767434106158
  0.7823262412879544  0.3182389780105552  0.5034767434106158
  0.8804688302341148  0.3672339184690401  0.5041072417190833
  0.7823262412879544  0.4640872632773991  0.5034767434106158
  0.8804688302341148  0.5132349117650747  0.5041072417190833
  0.6817610219894448  0.4640872632773991  0.5034767434106158
  0.6327660815309599  0.5132349117650747  0.5041072417190833
  0.4867650882349253  0.3672339184690401  0.5041072417190833
  0.5359127367226009  0.3182389780105552  0.5034767434106158
  0.4806357104949015  0.5193642895050985  0.6708567919661093
  0.4522515830759986  0.5477484169239943  0.6246340422368561
  0.5477484169239943  0.4522515830759986  0.6246340422368561
  0.5193642895050985  0.4806357104949015  0.6708567919661093
  0.4806357104949015  0.9612714209898172  0.6708567919661093
  0.4522515830759986  0.9045031661520042  0.6246340422368561
  0.5477484169239943  0.0954968338479958  0.6246340422368561
  0.5193642895050985  0.0387285790101828  0.6708567919661093
  0.0954968338479958  0.5477484169239943  0.6246340422368561
  0.9045031661520042  0.4522515830759986  0.6246340422368561
  0.9612714209898172  0.4806357104949015  0.6708567919661093
  0.4522545841512908  0.5477454158487092  0.3841061382226414
  0.4806577627530473  0.5193422372469527  0.3379647639272534
  0.5477454158487092  0.4522545841512908  0.3841061382226414
  0.5193422372469527  0.4806577627530473  0.3379647639272534
  0.4522545841512908  0.9045091683025674  0.3841061382226414
  0.4806577627530473  0.9613155255060875  0.3379647639272534
  0.5477454158487092  0.0954908316974326  0.3841061382226414
  0.5193422372469527  0.0386844744939125  0.3379647639272534
  0.0954908316974326  0.5477454158487092  0.3841061382226414
  0.9045091683025674  0.4522545841512908  0.3841061382226414
  0.9613155255060875  0.4806577627530473  0.3379647639272534
 
  0.00000000E+00  0.00000000E+00  0.00000000E+00
  0.00000000E+00  0.00000000E+00  0.00000000E+00
  0.00000000E+00  0.00000000E+00  0.00000000E+00
  0.00000000E+00  0.00000000E+00  0.00000000E+00
  0.00000000E+00  0.00000000E+00  0.00000000E+00
  0.00000000E+00  0.00000000E+00  0.00000000E+00
  0.00000000E+00  0.00000000E+00  0.00000000E+00
  0.00000000E+00  0.00000000E+00  0.00000000E+00
  0.00000000E+00  0.00000000E+00  0.00000000E+00
  0.00000000E+00  0.00000000E+00  0.00000000E+00
  0.00000000E+00  0.00000000E+00  0.00000000E+00
  0.00000000E+00  0.00000000E+00  0.00000000E+00
  0.00000000E+00  0.00000000E+00  0.00000000E+00
  0.00000000E+00  0.00000000E+00  0.00000000E+00
  0.00000000E+00  0.00000000E+00  0.00000000E+00
  0.00000000E+00  0.00000000E+00  0.00000000E+00
  0.00000000E+00  0.00000000E+00  0.00000000E+00
  0.00000000E+00  0.00000000E+00  0.00000000E+00
  0.00000000E+00  0.00000000E+00  0.00000000E+00
  0.00000000E+00  0.00000000E+00  0.00000000E+00
  0.00000000E+00  0.00000000E+00  0.00000000E+00
  0.00000000E+00  0.00000000E+00  0.00000000E+00
  0.00000000E+00  0.00000000E+00  0.00000000E+00
  0.00000000E+00  0.00000000E+00  0.00000000E+00
  0.00000000E+00  0.00000000E+00  0.00000000E+00
  0.00000000E+00  0.00000000E+00  0.00000000E+00
  0.00000000E+00  0.00000000E+00  0.00000000E+00
  0.00000000E+00  0.00000000E+00  0.00000000E+00
  0.00000000E+00  0.00000000E+00  0.00000000E+00
  0.00000000E+00  0.00000000E+00  0.00000000E+00
  0.00000000E+00  0.00000000E+00  0.00000000E+00
  0.00000000E+00  0.00000000E+00  0.00000000E+00
  0.00000000E+00  0.00000000E+00  0.00000000E+00
  0.00000000E+00  0.00000000E+00  0.00000000E+00
  0.00000000E+00  0.00000000E+00  0.00000000E+00
  0.00000000E+00  0.00000000E+00  0.00000000E+00
  0.00000000E+00  0.00000000E+00  0.00000000E+00
  0.00000000E+00  0.00000000E+00  0.00000000E+00
  0.00000000E+00  0.00000000E+00  0.00000000E+00
  0.00000000E+00  0.00000000E+00  0.00000000E+00
  0.00000000E+00  0.00000000E+00  0.00000000E+00
  0.00000000E+00  0.00000000E+00  0.00000000E+00
  0.00000000E+00  0.00000000E+00  0.00000000E+00
  0.00000000E+00  0.00000000E+00  0.00000000E+00
  0.00000000E+00  0.00000000E+00  0.00000000E+00
  0.00000000E+00  0.00000000E+00  0.00000000E+00
  0.00000000E+00  0.00000000E+00  0.00000000E+00
  0.00000000E+00  0.00000000E+00  0.00000000E+00
  0.00000000E+00  0.00000000E+00  0.00000000E+00
  0.00000000E+00  0.00000000E+00  0.00000000E+00
  0.00000000E+00  0.00000000E+00  0.00000000E+00
  0.00000000E+00  0.00000000E+00  0.00000000E+00
  0.00000000E+00  0.00000000E+00  0.00000000E+00
  0.00000000E+00  0.00000000E+00  0.00000000E+00
  0.00000000E+00  0.00000000E+00  0.00000000E+00
  0.00000000E+00  0.00000000E+00  0.00000000E+00
  0.00000000E+00  0.00000000E+00  0.00000000E+00
  0.00000000E+00  0.00000000E+00  0.00000000E+00
  0.00000000E+00  0.00000000E+00  0.00000000E+00
  0.00000000E+00  0.00000000E+00  0.00000000E+00
  0.00000000E+00  0.00000000E+00  0.00000000E+00
  0.00000000E+00  0.00000000E+00  0.00000000E+00
  0.00000000E+00  0.00000000E+00  0.00000000E+00
  0.00000000E+00  0.00000000E+00  0.00000000E+00
  0.00000000E+00  0.00000000E+00  0.00000000E+00
  0.00000000E+00  0.00000000E+00  0.00000000E+00
  0.00000000E+00  0.00000000E+00  0.00000000E+00
  0.00000000E+00  0.00000000E+00  0.00000000E+00
  0.00000000E+00  0.00000000E+00  0.00000000E+00
  0.00000000E+00  0.00000000E+00  0.00000000E+00
  0.00000000E+00  0.00000000E+00  0.00000000E+00
  0.00000000E+00  0.00000000E+00  0.00000000E+00
  0.00000000E+00  0.00000000E+00  0.00000000E+00
  0.00000000E+00  0.00000000E+00  0.00000000E+00
  0.00000000E+00  0.00000000E+00  0.00000000E+00
  0.00000000E+00  0.00000000E+00  0.00000000E+00
  0.00000000E+00  0.00000000E+00  0.00000000E+00
  0.00000000E+00  0.00000000E+00  0.00000000E+00
  0.00000000E+00  0.00000000E+00  0.00000000E+00
  0.00000000E+00  0.00000000E+00  0.00000000E+00
  0.00000000E+00  0.00000000E+00  0.00000000E+00
  0.00000000E+00  0.00000000E+00  0.00000000E+00
  0.00000000E+00  0.00000000E+00  0.00000000E+00
  0.00000000E+00  0.00000000E+00  0.00000000E+00
  0.00000000E+00  0.00000000E+00  0.00000000E+00
  0.00000000E+00  0.00000000E+00  0.00000000E+00
  0.00000000E+00  0.00000000E+00  0.00000000E+00
  0.00000000E+00  0.00000000E+00  0.00000000E+00
  0.00000000E+00  0.00000000E+00  0.00000000E+00
  0.00000000E+00  0.00000000E+00  0.00000000E+00
  0.00000000E+00  0.00000000E+00  0.00000000E+00
  0.00000000E+00  0.00000000E+00  0.00000000E+00
  0.00000000E+00  0.00000000E+00  0.00000000E+00
  0.00000000E+00  0.00000000E+00  0.00000000E+00
  0.00000000E+00  0.00000000E+00  0.00000000E+00
  0.00000000E+00  0.00000000E+00  0.00000000E+00
  0.00000000E+00  0.00000000E+00  0.00000000E+00
  0.00000000E+00  0.00000000E+00  0.00000000E+00
  0.00000000E+00  0.00000000E+00  0.00000000E+00
  0.00000000E+00  0.00000000E+00  0.00000000E+00
  0.00000000E+00  0.00000000E+00  0.00000000E+00
  0.00000000E+00  0.00000000E+00  0.00000000E+00
  0.00000000E+00  0.00000000E+00  0.00000000E+00
  0.00000000E+00  0.00000000E+00  0.00000000E+00
  0.00000000E+00  0.00000000E+00  0.00000000E+00
  0.00000000E+00  0.00000000E+00  0.00000000E+00
  0.00000000E+00  0.00000000E+00  0.00000000E+00
  0.00000000E+00  0.00000000E+00  0.00000000E+00
  0.00000000E+00  0.00000000E+00  0.00000000E+00
  0.00000000E+00  0.00000000E+00  0.00000000E+00
  0.00000000E+00  0.00000000E+00  0.00000000E+00
  0.00000000E+00  0.00000000E+00  0.00000000E+00
  0.00000000E+00  0.00000000E+00  0.00000000E+00
  0.00000000E+00  0.00000000E+00  0.00000000E+00
  0.00000000E+00  0.00000000E+00  0.00000000E+00
  0.00000000E+00  0.00000000E+00  0.00000000E+00
  0.00000000E+00  0.00000000E+00  0.00000000E+00
  0.00000000E+00  0.00000000E+00  0.00000000E+00
  0.00000000E+00  0.00000000E+00  0.00000000E+00
  0.00000000E+00  0.00000000E+00  0.00000000E+00
  0.00000000E+00  0.00000000E+00  0.00000000E+00
  0.00000000E+00  0.00000000E+00  0.00000000E+00
  0.00000000E+00  0.00000000E+00  0.00000000E+00
  0.00000000E+00  0.00000000E+00  0.00000000E+00
  0.00000000E+00  0.00000000E+00  0.00000000E+00
  0.00000000E+00  0.00000000E+00  0.00000000E+00
