Primitive Cell                          
   1.00000000000000     
    37.7847663719811138    0.0103994411486063    0.0000000000000000
   -18.8493756123090961   32.7692039160464859    0.0000000000000000
     0.0000000000000000    0.0000000000000000   20.0000000000000000
   C    N    H 
    72     6    48
Direct
  0.5389481178001461  0.4558638569849194  0.5005021347654122
  0.5760825284622868  0.4062494822930418  0.5028773009292635
  0.5335384530933851  0.3892982661689999  0.5107321772884248
  0.5153535358614576  0.4134120318247412  0.5099214860855241
  0.5932790396273475  0.3793128476329315  0.5044580686076614
  0.7847347202556421  0.4134764652452319  0.5050687229534532
  0.8542228246319894  0.4731839473320534  0.5114500658432064
  0.9154648864057506  0.4679207940141694  0.5005469756064258
  0.8964668648615017  0.4914255473688485  0.5104225835919536
  0.6276872372390798  0.2221661457168977  0.5048573758308450
  0.5580596934209936  0.1592400265305542  0.4933849296434687
  0.5508285126262962  0.0915954386222353  0.5009279702247866
  0.5338108308421496  0.1170828453841750  0.4921757245112559
  0.4629010230300992  0.5529286983338579  0.4990263062508546
  0.4269093981632750  0.6036522422569064  0.5016039508841459
  0.4683746024414432  0.6193650235643844  0.4848694210305311
  0.4859727376726184  0.5947175224481995  0.4833434302295885
  0.4100501484739425  0.6308955158837506  0.5019381332916524
  0.2190775331086883  0.5973240533567505  0.5018652102757812
  0.1494542778998067  0.5389506981497973  0.4846772274540001
  0.0883844592905092  0.5443207679417412  0.4988601088917619
  0.1072486933256940  0.5213093684131636  0.4831577299889034
  0.3759926400270004  0.7882387954340189  0.5022849725961862
  0.4452837605082678  0.8511789828434360  0.5159044582272898
  0.4536153692721285  0.9188410967279381  0.4995816245590916
  0.4698294686653028  0.8932798409872262  0.5147610167893646
  0.9602976554987350  0.4878554435070726  0.4992173882090825
  0.9815231663573272  0.4697324525603150  0.4704112196309040
  0.0435418086723871  0.5249408801152384  0.4979735083273837
  0.5191111829126243  0.4809143431079548  0.4992659511310507
  0.5374527056070519  0.5203180437872206  0.4708954463828192
  0.4822125305366782  0.5273523853265658  0.4980826919316854
  0.5256624497746429  0.0468061367910977  0.4998696779501302
  0.4861565558647172  0.0258716398550902  0.4717612960794995
  0.4791268856206585  0.9636449567409926  0.4989130228215188
  0.5814913528703940  0.4730476140456474  0.4926296992670203
  0.5995995331597328  0.4488998135188496  0.4938474919192615
  0.6332998730357673  0.3904416602797198  0.5015327257180857
  0.6504519220764635  0.3633415510193032  0.5023147813551105
  0.6262507269160977  0.3204383586594375  0.5022250197781446
  0.6436857029729381  0.2952426126622854  0.5022645938137345
  0.6866194048356604  0.3138749422853735  0.5022162630899700
  0.7117626170645082  0.3564258574278298  0.5023436150245644
  0.6930310470682031  0.3806883902694622  0.5022994623452277
  0.7559607087459312  0.3735059323955738  0.5015583628388072
  0.8288241979806088  0.4306750591248729  0.5033389241211665
  0.8480925457657307  0.4072425104521713  0.4938336842400943
  0.8903100646467266  0.4254102606520362  0.4924091568155546
  0.6165995314315182  0.2510933881014736  0.5014862204222865
  0.6006533388067936  0.1781424170800179  0.5032886060538218
  0.6174455551443145  0.1524317053037976  0.5120086581821397
  0.5932301819717622  0.1102347621135777  0.5111979994567193
  0.4214149621565539  0.5370330651263586  0.5158011248442520
  0.4039050863313989  0.5616984685746189  0.5171097961441191
  0.3704197378436049  0.6201276462123460  0.5110431200963532
  0.3532699905371857  0.6472264303729744  0.5111448546111035
  0.3774635822999528  0.6901233372616176  0.5112753297371100
  0.3599841633125038  0.7152993417959408  0.5110056052310128
  0.3170623167981788  0.6966465010245670  0.5113657681397328
  0.2919447901410948  0.6540825794986844  0.5111534733900669
  0.3106758799598524  0.6298381392021781  0.5115017694220541
  0.2477463362032637  0.6369560950309747  0.5109315009143458
  0.1750112207462990  0.5804061047971416  0.5014329690322086
  0.1559098095698985  0.6033493635077036  0.5169240587859960
  0.1137713655791259  0.5857943790058826  0.5156131753954085
  0.3869798120607513  0.7594694278183098  0.5107086853987326
  0.4031228598344754  0.8322670111191144  0.5018245104517334
  0.3871001992731919  0.8579881340374200  0.4865157948939824
  0.4116398922312854  0.9001684264697261  0.4851457286345635
  0.0222792098836209  0.5433974361525458  0.5255008759807112
  0.4635391058049336  0.4875893457972893  0.5251695024961052
  0.5188918593651124  0.9846033592844279  0.5260714929622807
  0.0220314219596389  0.4875626611250752  0.4698575350199548
  0.5197420604811356  0.5431513442615525  0.4703974492964278
  0.4632824288065720  0.9854107292603160  0.4714080336070978
  0.9817721526670908  0.5255484422386800  0.5262584916805082
  0.4813157608654848  0.4648279262073700  0.5259377350952761
  0.5417155703952901  0.0250578954559444  0.5266759367713618
  0.4824845055966165  0.3998509149933582  0.5164454507551000
  0.5145839210226697  0.3563613720850327  0.5176649533945437
  0.5436381967874908  0.1778093212800798  0.4865775529320331
  0.8401154193049223  0.4920548019392115  0.5187364110454951
  0.9156447199609232  0.5242637276711548  0.5171618504168123
  0.5009640268154882  0.1037802657156774  0.4854359331616109
  0.7748978498866421  0.4361207222985186  0.5100665346979980
  0.5706152212039228  0.3468767486717610  0.5088226692200593
  0.6601091725295731  0.2317992339793733  0.5096512572965253
  0.5180021705093552  0.6073282385431114  0.4700382803753058
  0.4869537060114908  0.6517421879236878  0.4727112370194391
  0.4591125509628924  0.8326336416269555  0.5281154059376547
  0.1633792413868420  0.5204197927431053  0.4725283784629539
  0.0879778274648331  0.4892888203905912  0.4698629452153540
  0.5022925358724066  0.9063728453210018  0.5252166080205996
  0.2290035617624469  0.5750440402040269  0.4927723520902276
  0.4323819182209334  0.6630011986003481  0.4927274775561230
  0.3437646153242042  0.7784456225675669  0.4939959049695162
  0.9650947199870075  0.4399843836787340  0.4458498777923197
  0.5673266408625466  0.5335756039570185  0.4467010499506543
  0.4728369929473359  0.0424955182982671  0.4476750779500804
  0.6008958163684568  0.5059434580316449  0.4866144252508562
  0.6326149762620688  0.4634346969490295  0.4877880798731695
  0.7118012830835312  0.4138905436540625  0.5016122365667499
  0.5930272231715463  0.3060356527576005  0.5015424615377739
  0.7010712248355873  0.2950616351128019  0.5014730249495685
  0.9039335711321499  0.4060841062737950  0.4860793801305405
  0.8297592785708545  0.3742574214263783  0.4875669888649128
  0.6066463189203759  0.0908224204903547  0.5184530509339567
  0.6503393119222238  0.1662513420747018  0.5196412203290350
  0.7657700435206820  0.3507877381724427  0.4978860933503242
  0.6560272785630161  0.4229156643349583  0.4984071662797476
  0.5841227161803246  0.2414470222238236  0.4980472623751737
  0.4022314050280258  0.5047449089401965  0.5275258049087057
  0.3717698658453230  0.5481322643351518  0.5306127026516805
  0.2918851274936856  0.5966418459473388  0.5126777733098820
  0.4106862237375140  0.7044901364169576  0.5122619513248523
  0.3026202520097812  0.7154678807951882  0.5123563381717560
  0.1005286580938929  0.6049158035880779  0.5273223006716066
  0.1743384829067196  0.6354683499700684  0.5304475074501553
  0.3987839138640297  0.9195531845390335  0.4729449972529238
  0.3545608775844684  0.8442191258371565  0.4754200326061451
  0.2378339301831005  0.6594294588037641  0.5177383788717762
  0.3479221501900227  0.5878379457247789  0.5180071744791732
  0.4193540340817563  0.7692779363368558  0.5169525858013770
  0.0386144642535626  0.5735700111746169  0.5486315795013397
  0.4332619687879031  0.4738006754279454  0.5479608074660334
  0.5325989115365815  0.9680537588909885  0.5490883269512707
 
  0.00000000E+00  0.00000000E+00  0.00000000E+00
  0.00000000E+00  0.00000000E+00  0.00000000E+00
  0.00000000E+00  0.00000000E+00  0.00000000E+00
  0.00000000E+00  0.00000000E+00  0.00000000E+00
  0.00000000E+00  0.00000000E+00  0.00000000E+00
  0.00000000E+00  0.00000000E+00  0.00000000E+00
  0.00000000E+00  0.00000000E+00  0.00000000E+00
  0.00000000E+00  0.00000000E+00  0.00000000E+00
  0.00000000E+00  0.00000000E+00  0.00000000E+00
  0.00000000E+00  0.00000000E+00  0.00000000E+00
  0.00000000E+00  0.00000000E+00  0.00000000E+00
  0.00000000E+00  0.00000000E+00  0.00000000E+00
  0.00000000E+00  0.00000000E+00  0.00000000E+00
  0.00000000E+00  0.00000000E+00  0.00000000E+00
  0.00000000E+00  0.00000000E+00  0.00000000E+00
  0.00000000E+00  0.00000000E+00  0.00000000E+00
  0.00000000E+00  0.00000000E+00  0.00000000E+00
  0.00000000E+00  0.00000000E+00  0.00000000E+00
  0.00000000E+00  0.00000000E+00  0.00000000E+00
  0.00000000E+00  0.00000000E+00  0.00000000E+00
  0.00000000E+00  0.00000000E+00  0.00000000E+00
  0.00000000E+00  0.00000000E+00  0.00000000E+00
  0.00000000E+00  0.00000000E+00  0.00000000E+00
  0.00000000E+00  0.00000000E+00  0.00000000E+00
  0.00000000E+00  0.00000000E+00  0.00000000E+00
  0.00000000E+00  0.00000000E+00  0.00000000E+00
  0.00000000E+00  0.00000000E+00  0.00000000E+00
  0.00000000E+00  0.00000000E+00  0.00000000E+00
  0.00000000E+00  0.00000000E+00  0.00000000E+00
  0.00000000E+00  0.00000000E+00  0.00000000E+00
  0.00000000E+00  0.00000000E+00  0.00000000E+00
  0.00000000E+00  0.00000000E+00  0.00000000E+00
  0.00000000E+00  0.00000000E+00  0.00000000E+00
  0.00000000E+00  0.00000000E+00  0.00000000E+00
  0.00000000E+00  0.00000000E+00  0.00000000E+00
  0.00000000E+00  0.00000000E+00  0.00000000E+00
  0.00000000E+00  0.00000000E+00  0.00000000E+00
  0.00000000E+00  0.00000000E+00  0.00000000E+00
  0.00000000E+00  0.00000000E+00  0.00000000E+00
  0.00000000E+00  0.00000000E+00  0.00000000E+00
  0.00000000E+00  0.00000000E+00  0.00000000E+00
  0.00000000E+00  0.00000000E+00  0.00000000E+00
  0.00000000E+00  0.00000000E+00  0.00000000E+00
  0.00000000E+00  0.00000000E+00  0.00000000E+00
  0.00000000E+00  0.00000000E+00  0.00000000E+00
  0.00000000E+00  0.00000000E+00  0.00000000E+00
  0.00000000E+00  0.00000000E+00  0.00000000E+00
  0.00000000E+00  0.00000000E+00  0.00000000E+00
  0.00000000E+00  0.00000000E+00  0.00000000E+00
  0.00000000E+00  0.00000000E+00  0.00000000E+00
  0.00000000E+00  0.00000000E+00  0.00000000E+00
  0.00000000E+00  0.00000000E+00  0.00000000E+00
  0.00000000E+00  0.00000000E+00  0.00000000E+00
  0.00000000E+00  0.00000000E+00  0.00000000E+00
  0.00000000E+00  0.00000000E+00  0.00000000E+00
  0.00000000E+00  0.00000000E+00  0.00000000E+00
  0.00000000E+00  0.00000000E+00  0.00000000E+00
  0.00000000E+00  0.00000000E+00  0.00000000E+00
  0.00000000E+00  0.00000000E+00  0.00000000E+00
  0.00000000E+00  0.00000000E+00  0.00000000E+00
  0.00000000E+00  0.00000000E+00  0.00000000E+00
  0.00000000E+00  0.00000000E+00  0.00000000E+00
  0.00000000E+00  0.00000000E+00  0.00000000E+00
  0.00000000E+00  0.00000000E+00  0.00000000E+00
  0.00000000E+00  0.00000000E+00  0.00000000E+00
  0.00000000E+00  0.00000000E+00  0.00000000E+00
  0.00000000E+00  0.00000000E+00  0.00000000E+00
  0.00000000E+00  0.00000000E+00  0.00000000E+00
  0.00000000E+00  0.00000000E+00  0.00000000E+00
  0.00000000E+00  0.00000000E+00  0.00000000E+00
  0.00000000E+00  0.00000000E+00  0.00000000E+00
  0.00000000E+00  0.00000000E+00  0.00000000E+00
  0.00000000E+00  0.00000000E+00  0.00000000E+00
  0.00000000E+00  0.00000000E+00  0.00000000E+00
  0.00000000E+00  0.00000000E+00  0.00000000E+00
  0.00000000E+00  0.00000000E+00  0.00000000E+00
  0.00000000E+00  0.00000000E+00  0.00000000E+00
  0.00000000E+00  0.00000000E+00  0.00000000E+00
  0.00000000E+00  0.00000000E+00  0.00000000E+00
  0.00000000E+00  0.00000000E+00  0.00000000E+00
  0.00000000E+00  0.00000000E+00  0.00000000E+00
  0.00000000E+00  0.00000000E+00  0.00000000E+00
  0.00000000E+00  0.00000000E+00  0.00000000E+00
  0.00000000E+00  0.00000000E+00  0.00000000E+00
  0.00000000E+00  0.00000000E+00  0.00000000E+00
  0.00000000E+00  0.00000000E+00  0.00000000E+00
  0.00000000E+00  0.00000000E+00  0.00000000E+00
  0.00000000E+00  0.00000000E+00  0.00000000E+00
  0.00000000E+00  0.00000000E+00  0.00000000E+00
  0.00000000E+00  0.00000000E+00  0.00000000E+00
  0.00000000E+00  0.00000000E+00  0.00000000E+00
  0.00000000E+00  0.00000000E+00  0.00000000E+00
  0.00000000E+00  0.00000000E+00  0.00000000E+00
  0.00000000E+00  0.00000000E+00  0.00000000E+00
  0.00000000E+00  0.00000000E+00  0.00000000E+00
  0.00000000E+00  0.00000000E+00  0.00000000E+00
  0.00000000E+00  0.00000000E+00  0.00000000E+00
  0.00000000E+00  0.00000000E+00  0.00000000E+00
  0.00000000E+00  0.00000000E+00  0.00000000E+00
  0.00000000E+00  0.00000000E+00  0.00000000E+00
  0.00000000E+00  0.00000000E+00  0.00000000E+00
  0.00000000E+00  0.00000000E+00  0.00000000E+00
  0.00000000E+00  0.00000000E+00  0.00000000E+00
  0.00000000E+00  0.00000000E+00  0.00000000E+00
  0.00000000E+00  0.00000000E+00  0.00000000E+00
  0.00000000E+00  0.00000000E+00  0.00000000E+00
  0.00000000E+00  0.00000000E+00  0.00000000E+00
  0.00000000E+00  0.00000000E+00  0.00000000E+00
  0.00000000E+00  0.00000000E+00  0.00000000E+00
  0.00000000E+00  0.00000000E+00  0.00000000E+00
  0.00000000E+00  0.00000000E+00  0.00000000E+00
  0.00000000E+00  0.00000000E+00  0.00000000E+00
  0.00000000E+00  0.00000000E+00  0.00000000E+00
  0.00000000E+00  0.00000000E+00  0.00000000E+00
  0.00000000E+00  0.00000000E+00  0.00000000E+00
  0.00000000E+00  0.00000000E+00  0.00000000E+00
  0.00000000E+00  0.00000000E+00  0.00000000E+00
  0.00000000E+00  0.00000000E+00  0.00000000E+00
  0.00000000E+00  0.00000000E+00  0.00000000E+00
  0.00000000E+00  0.00000000E+00  0.00000000E+00
  0.00000000E+00  0.00000000E+00  0.00000000E+00
  0.00000000E+00  0.00000000E+00  0.00000000E+00
  0.00000000E+00  0.00000000E+00  0.00000000E+00
  0.00000000E+00  0.00000000E+00  0.00000000E+00
  0.00000000E+00  0.00000000E+00  0.00000000E+00
  0.00000000E+00  0.00000000E+00  0.00000000E+00
