Primitive Cell                          
   1.00000000000000     
    32.2725128935569074   -0.0303342710863371    0.0000000000000000
   -16.1625456381710890   27.9974571962155956    0.0000000000000000
     0.0000000000000000    0.0000000000000000   20.0000000000000000
   H    N    C 
    48     2    72
Direct
  0.3319020279555644  0.7324830908199900  0.5813193677903357
  0.3039912417701274  0.6884328878590864  0.4392569175113294
  0.2153049209888849  0.6444232988870624  0.4388525127013736
  0.3315029966737697  0.5906362020020595  0.4694207811647289
  0.3033947080991055  0.6070142784845132  0.6098907711680326
  0.2147250912593464  0.5624529791515940  0.6091994420469433
  0.0600422106639087  0.5295884792819194  0.6307590620902701
  0.1481004947009339  0.5732639438954763  0.6312116302462201
  0.1486476108306860  0.5670182763151956  0.4160529694164126
  0.0605847836922990  0.5226099549308927  0.4156058191984187
  0.4439777521265071  0.7335369880417630  0.4626539447035825
  0.3738064090610962  0.8202225836415238  0.5776637051880797
  0.4442614891736767  0.7022947098811088  0.5864485039269809
  0.3733981155725488  0.5448419008653786  0.4730436511147431
  0.4870699027603749  0.8213184634483071  0.4619490090952283
  0.4873817859897969  0.6576750571180980  0.5869918581611486
  0.4770368654619830  0.9753740400103581  0.6163396302024751
  0.4350200030025704  0.8878416543613312  0.6171380750242434
  0.5385800091128417  0.5539845794788718  0.6248551004172853
  0.4937943952224657  0.5967243504066104  0.6263850069982411
  0.5810105291517118  0.4416817573357505  0.6370525279814956
  0.5361850364102807  0.4847429766156495  0.6370277107228333
  0.5343588175121852  0.0431529447119914  0.4128333406143341
  0.5791903073966935  0.1310305113884667  0.4130525070061353
  0.4923489501980072  0.8885504697372753  0.4221522557971795
  0.5371789025842233  0.9761110877041546  0.4235264525024789
  0.4338463973797531  0.5376003874361572  0.4333896859573017
  0.4757673970616878  0.4920196988326282  0.4342325839268923
  0.5447871976066310  0.4932852762259898  0.4218642614189889
  0.6606075960486493  0.1973118341961282  0.4375477735973092
  0.7062871181183965  0.2858992005751020  0.4396032302859112
  0.6212190125704424  0.2855926089656577  0.6055859578390326
  0.5755382719201592  0.1969973604379049  0.6037976231672744
  0.7503155822360625  0.3108959139418985  0.5715499954892920
  0.8381731716511922  0.3544195704281705  0.5691683212601006
  0.6199625401634492  0.3258784819924045  0.4460682962248939
  0.5742267005674293  0.3686992332892842  0.4479761290236084
  0.6618491687801651  0.4560788924799297  0.6106781292478516
  0.7074738953111748  0.4131456923880705  0.6086944977552449
  0.7498890702915730  0.4305383831344400  0.4765933012085313
  0.8377776669373702  0.4747869193277481  0.4771418144806248
  0.5901196871170242  0.1307430811447503  0.6276578540495095
  0.5467886861108511  0.0428637027540617  0.6274896565547792
  0.9054576540251205  0.4139661176307357  0.6152839873045579
  0.9933195816004314  0.4569016875357761  0.6141593343429790
  0.5881587378228872  0.4487929861535562  0.4220116675638153
  0.9931863587565175  0.5278934660516370  0.4317799345519049
  0.9053077973124743  0.4827730448300684  0.4307077198377272
  0.3604472291047287  0.6760376427571231  0.5248736960078659
  0.6930485782111475  0.3422743904258354  0.5249638392424174
  0.3095159619312184  0.6506252138569408  0.5246041300988225
  0.2842108745852556  0.6606760205350284  0.4763611833972305
  0.2343942738448703  0.6357255034786462  0.4762366195118872
  0.2081808578470685  0.6000138699201116  0.5239697288007221
  0.2340656295428616  0.5903360281894976  0.5720409757149127
  0.2838775387835142  0.6151453507972136  0.5725477486821049
  0.0792490373531720  0.5368766421851205  0.5834026842723219
  0.1290586468799333  0.5616571428567880  0.5836786115752020
  0.1552972093412848  0.5735911992377751  0.5236681076294758
  0.1293617210057718  0.5594591786851240  0.4633923786859810
  0.0795426010711040  0.5344020913282606  0.4631614872294065
  0.0532392386131946  0.5225280762078128  0.5231572951129309
  0.3850456120058254  0.7264930801399743  0.5228016924748502
  0.3849955983113205  0.6501409452352149  0.5270176596570124
  0.4287024539375750  0.7525277717357142  0.4883933331056767
  0.4527007496999502  0.8021985262243447  0.4876622983770957
  0.4341683641447744  0.8281618337464920  0.5199994106949219
  0.3899999517918431  0.8016180177114336  0.5531384144675258
  0.3659752729988668  0.7519698171453442  0.5550338968251722
  0.4288433536492775  0.6679177430591068  0.5609896141784105
  0.4528665421969151  0.6422677750512094  0.5616352985631679
  0.4341876657422077  0.5976132140877581  0.5297031123626965
  0.3897867939784874  0.5797940536472979  0.4971426539835804
  0.3657430243454414  0.6054016698510836  0.4952886826308855
  0.4812301984157870  0.9566279279593886  0.5738236573385436
  0.4567355134606856  0.9069262784385543  0.5737885425565850
  0.5370025282938826  0.0358088347315899  0.5201139466864575
  0.5149563113024911  0.5494761074315448  0.5830432287367131
  0.4901645277375692  0.5743942418164991  0.5833611057009733
  0.5369589459717901  0.4926980672632553  0.5294908136926537
  0.5735472305821858  0.4533952359890492  0.5896554448781330
  0.5483443556636587  0.4779243817679628  0.5895733442182944
  0.4600677502864841  0.8809020081707004  0.5196508808556501
  0.4893285615643492  0.9072954303381806  0.4655844803567533
  0.5141389194793007  0.9570081053741148  0.4658474265273327
  0.5106966951941914  0.9830116099219879  0.5199195599857660
  0.5473474162598819  0.0620484758930075  0.4602095442758625
  0.5725596947400646  0.1117784620920759  0.4602688416559246
  0.4601463586246624  0.5708255168739953  0.5299190168361818
  0.4561179814534526  0.5407844920279743  0.4763188614995286
  0.4805686156292026  0.5155280913083189  0.4762743610517219
  0.5107368676860133  0.5192698594496790  0.5295868360691003
  0.5527945600424147  0.0618697517547915  0.5801867630552806
  0.5516598437237050  0.4812438660861389  0.4693919844122618
  0.6669462812272045  0.2915525556398464  0.5230273004279340
  0.6669238182303019  0.3668606368985579  0.5269549728942948
  0.7434199216025803  0.3674261979278342  0.5242802042504664
  0.7694271556672589  0.3468335875887902  0.5505945504857621
  0.8191737372369374  0.3717968919452517  0.5495579195239699
  0.8453726207641665  0.4183316859883632  0.5232007146943616
  0.8189537880348041  0.4385454808566820  0.4972380076092406
  0.7691935321793437  0.4138214472640129  0.4972606776007709
  0.6774747825308438  0.2662236554751871  0.4754130597018502
  0.6516395499323124  0.2165059698350262  0.4743812343783276
  0.6147783903076487  0.1904677910886221  0.5207525769224617
  0.6043940605933145  0.2163113952535411  0.5678742276241238
  0.6298516265041059  0.2660221390813362  0.5690106309400349
  0.6291174906606827  0.3545898595118970  0.4819583379034071
  0.6036341764385043  0.3788173925882390  0.4831285497234674
  0.6147178153334281  0.4157797042069049  0.5292515614461095
  0.6522940866373332  0.4273238507843118  0.5746506995328886
  0.6781281031660242  0.4034339186921230  0.5736283595373521
  0.5880782093582226  0.1376905554460350  0.5203705494633297
  0.5774624547681029  0.1116010319485099  0.5803496026043291
  0.5880214920954501  0.4418615980229532  0.5295364446394046
  0.0003734331170619  0.4959880327806587  0.5229898557714776
  0.8981831790802417  0.4447622538053508  0.5229997973701828
  0.9244430796793779  0.4384238767528785  0.5741912758543037
  0.9742369788742451  0.4633169110041564  0.5741287099929693
  0.5763319659600583  0.4561823746113589  0.4693912789125889
  0.9741628251895733  0.5023782097314182  0.4718105852153016
  0.9243591410404690  0.4773564463585771  0.4717653493085976
 
  0.00000000E+00  0.00000000E+00  0.00000000E+00
  0.00000000E+00  0.00000000E+00  0.00000000E+00
  0.00000000E+00  0.00000000E+00  0.00000000E+00
  0.00000000E+00  0.00000000E+00  0.00000000E+00
  0.00000000E+00  0.00000000E+00  0.00000000E+00
  0.00000000E+00  0.00000000E+00  0.00000000E+00
  0.00000000E+00  0.00000000E+00  0.00000000E+00
  0.00000000E+00  0.00000000E+00  0.00000000E+00
  0.00000000E+00  0.00000000E+00  0.00000000E+00
  0.00000000E+00  0.00000000E+00  0.00000000E+00
  0.00000000E+00  0.00000000E+00  0.00000000E+00
  0.00000000E+00  0.00000000E+00  0.00000000E+00
  0.00000000E+00  0.00000000E+00  0.00000000E+00
  0.00000000E+00  0.00000000E+00  0.00000000E+00
  0.00000000E+00  0.00000000E+00  0.00000000E+00
  0.00000000E+00  0.00000000E+00  0.00000000E+00
  0.00000000E+00  0.00000000E+00  0.00000000E+00
  0.00000000E+00  0.00000000E+00  0.00000000E+00
  0.00000000E+00  0.00000000E+00  0.00000000E+00
  0.00000000E+00  0.00000000E+00  0.00000000E+00
  0.00000000E+00  0.00000000E+00  0.00000000E+00
  0.00000000E+00  0.00000000E+00  0.00000000E+00
  0.00000000E+00  0.00000000E+00  0.00000000E+00
  0.00000000E+00  0.00000000E+00  0.00000000E+00
  0.00000000E+00  0.00000000E+00  0.00000000E+00
  0.00000000E+00  0.00000000E+00  0.00000000E+00
  0.00000000E+00  0.00000000E+00  0.00000000E+00
  0.00000000E+00  0.00000000E+00  0.00000000E+00
  0.00000000E+00  0.00000000E+00  0.00000000E+00
  0.00000000E+00  0.00000000E+00  0.00000000E+00
  0.00000000E+00  0.00000000E+00  0.00000000E+00
  0.00000000E+00  0.00000000E+00  0.00000000E+00
  0.00000000E+00  0.00000000E+00  0.00000000E+00
  0.00000000E+00  0.00000000E+00  0.00000000E+00
  0.00000000E+00  0.00000000E+00  0.00000000E+00
  0.00000000E+00  0.00000000E+00  0.00000000E+00
  0.00000000E+00  0.00000000E+00  0.00000000E+00
  0.00000000E+00  0.00000000E+00  0.00000000E+00
  0.00000000E+00  0.00000000E+00  0.00000000E+00
  0.00000000E+00  0.00000000E+00  0.00000000E+00
  0.00000000E+00  0.00000000E+00  0.00000000E+00
  0.00000000E+00  0.00000000E+00  0.00000000E+00
  0.00000000E+00  0.00000000E+00  0.00000000E+00
  0.00000000E+00  0.00000000E+00  0.00000000E+00
  0.00000000E+00  0.00000000E+00  0.00000000E+00
  0.00000000E+00  0.00000000E+00  0.00000000E+00
  0.00000000E+00  0.00000000E+00  0.00000000E+00
  0.00000000E+00  0.00000000E+00  0.00000000E+00
  0.00000000E+00  0.00000000E+00  0.00000000E+00
  0.00000000E+00  0.00000000E+00  0.00000000E+00
  0.00000000E+00  0.00000000E+00  0.00000000E+00
  0.00000000E+00  0.00000000E+00  0.00000000E+00
  0.00000000E+00  0.00000000E+00  0.00000000E+00
  0.00000000E+00  0.00000000E+00  0.00000000E+00
  0.00000000E+00  0.00000000E+00  0.00000000E+00
  0.00000000E+00  0.00000000E+00  0.00000000E+00
  0.00000000E+00  0.00000000E+00  0.00000000E+00
  0.00000000E+00  0.00000000E+00  0.00000000E+00
  0.00000000E+00  0.00000000E+00  0.00000000E+00
  0.00000000E+00  0.00000000E+00  0.00000000E+00
  0.00000000E+00  0.00000000E+00  0.00000000E+00
  0.00000000E+00  0.00000000E+00  0.00000000E+00
  0.00000000E+00  0.00000000E+00  0.00000000E+00
  0.00000000E+00  0.00000000E+00  0.00000000E+00
  0.00000000E+00  0.00000000E+00  0.00000000E+00
  0.00000000E+00  0.00000000E+00  0.00000000E+00
  0.00000000E+00  0.00000000E+00  0.00000000E+00
  0.00000000E+00  0.00000000E+00  0.00000000E+00
  0.00000000E+00  0.00000000E+00  0.00000000E+00
  0.00000000E+00  0.00000000E+00  0.00000000E+00
  0.00000000E+00  0.00000000E+00  0.00000000E+00
  0.00000000E+00  0.00000000E+00  0.00000000E+00
  0.00000000E+00  0.00000000E+00  0.00000000E+00
  0.00000000E+00  0.00000000E+00  0.00000000E+00
  0.00000000E+00  0.00000000E+00  0.00000000E+00
  0.00000000E+00  0.00000000E+00  0.00000000E+00
  0.00000000E+00  0.00000000E+00  0.00000000E+00
  0.00000000E+00  0.00000000E+00  0.00000000E+00
  0.00000000E+00  0.00000000E+00  0.00000000E+00
  0.00000000E+00  0.00000000E+00  0.00000000E+00
  0.00000000E+00  0.00000000E+00  0.00000000E+00
  0.00000000E+00  0.00000000E+00  0.00000000E+00
  0.00000000E+00  0.00000000E+00  0.00000000E+00
  0.00000000E+00  0.00000000E+00  0.00000000E+00
  0.00000000E+00  0.00000000E+00  0.00000000E+00
  0.00000000E+00  0.00000000E+00  0.00000000E+00
  0.00000000E+00  0.00000000E+00  0.00000000E+00
  0.00000000E+00  0.00000000E+00  0.00000000E+00
  0.00000000E+00  0.00000000E+00  0.00000000E+00
  0.00000000E+00  0.00000000E+00  0.00000000E+00
  0.00000000E+00  0.00000000E+00  0.00000000E+00
  0.00000000E+00  0.00000000E+00  0.00000000E+00
  0.00000000E+00  0.00000000E+00  0.00000000E+00
  0.00000000E+00  0.00000000E+00  0.00000000E+00
  0.00000000E+00  0.00000000E+00  0.00000000E+00
  0.00000000E+00  0.00000000E+00  0.00000000E+00
  0.00000000E+00  0.00000000E+00  0.00000000E+00
  0.00000000E+00  0.00000000E+00  0.00000000E+00
  0.00000000E+00  0.00000000E+00  0.00000000E+00
  0.00000000E+00  0.00000000E+00  0.00000000E+00
  0.00000000E+00  0.00000000E+00  0.00000000E+00
  0.00000000E+00  0.00000000E+00  0.00000000E+00
  0.00000000E+00  0.00000000E+00  0.00000000E+00
  0.00000000E+00  0.00000000E+00  0.00000000E+00
  0.00000000E+00  0.00000000E+00  0.00000000E+00
  0.00000000E+00  0.00000000E+00  0.00000000E+00
  0.00000000E+00  0.00000000E+00  0.00000000E+00
  0.00000000E+00  0.00000000E+00  0.00000000E+00
  0.00000000E+00  0.00000000E+00  0.00000000E+00
  0.00000000E+00  0.00000000E+00  0.00000000E+00
  0.00000000E+00  0.00000000E+00  0.00000000E+00
  0.00000000E+00  0.00000000E+00  0.00000000E+00
  0.00000000E+00  0.00000000E+00  0.00000000E+00
  0.00000000E+00  0.00000000E+00  0.00000000E+00
  0.00000000E+00  0.00000000E+00  0.00000000E+00
  0.00000000E+00  0.00000000E+00  0.00000000E+00
  0.00000000E+00  0.00000000E+00  0.00000000E+00
  0.00000000E+00  0.00000000E+00  0.00000000E+00
  0.00000000E+00  0.00000000E+00  0.00000000E+00
  0.00000000E+00  0.00000000E+00  0.00000000E+00
  0.00000000E+00  0.00000000E+00  0.00000000E+00
  0.00000000E+00  0.00000000E+00  0.00000000E+00
