Primitive Cell                          
   1.00000000000000     
    29.2966688395393540    0.0219889182845387    0.0000000000000000
    14.6674522684574029   25.3606216910920175    0.0000000000000000
     0.0000000000000000    0.0000000000000000   20.0000000000000000
   H    C    O    N 
    36    57     3    12
Direct
  0.0399532135407128  0.4783526347232581  0.3982837932126984
  0.5131935641778327  0.3659426543354769  0.5040070066095552
  0.4637826658135822  0.3170043125947544  0.5026879627840728
  0.3659426543354769  0.5131935641778327  0.5040070066095552
  0.3170043125947544  0.4637826658135822  0.5026879627840728
  0.2157112586555741  0.4638681364965080  0.5025314480176277
  0.1172279828793279  0.5131503505279653  0.5041057012426506
  0.2162689542791156  0.3169669875630632  0.5025137780378017
  0.1178156510967199  0.3658265792485764  0.5041165523029463
  0.3169669875630632  0.2162689542791156  0.5025137780378017
  0.3658265792485764  0.1178156510967199  0.5041165523029463
  0.5131503505279653  0.1172279828793279  0.5041057012426506
  0.4638681364965080  0.2157112586555741  0.5025314480176277
  0.4845154619772885  0.6316271971046703  0.5061382284815821
  0.5337765197364135  0.6806117148950861  0.5002903412470943
  0.6316271971046703  0.4845154619772885  0.5061382284815821
  0.6806117148950861  0.5337765197364135  0.5002903412470943
  0.7820194887661813  0.5336559083736319  0.5002680824565289
  0.8803615425856819  0.4844237160399842  0.5060223961097705
  0.7815824348986951  0.6805090048604114  0.5001740887975927
  0.8799467870148447  0.6315652524602484  0.5058971689408622
  0.6805090048604114  0.7815824348986951  0.5001740887975927
  0.6315652524602484  0.8799467870148447  0.5058971689408622
  0.4844237160399842  0.8803615425856819  0.5060223961097705
  0.5336559083736319  0.7820194887661813  0.5002680824565289
  0.5446216186135899  0.9069553507416117  0.7087445356943363
  0.5860184642571582  0.8851723625507688  0.6360617616445481
  0.5246677056045357  0.8854566978136944  0.6361548915693973
  0.5446536926098844  0.5446536926098844  0.7089787617437509
  0.5248025791194024  0.5860942145246497  0.6363158188620375
  0.5860942145246497  0.5248025791194024  0.6363158188620375
  0.9069553507416117  0.5446216186135899  0.7087445356943363
  0.8854566978136944  0.5246677056045357  0.6361548915693973
  0.8851723625507688  0.5860184642571582  0.6360617616445481
  0.4783526347232581  0.0399532135407128  0.3982837932126984
  0.4783598857370208  0.4783598857370208  0.3983970824432959
  0.0218262589740092  0.4873838378454565  0.4478153532217704
  0.0524368024690460  0.4720136976597757  0.5061598911630938
  0.3582103748295893  0.3582103748295893  0.5027602275347363
  0.3582913379304955  0.2804904396295811  0.5023798726356077
  0.2804904396295811  0.3582913379304955  0.5023798726356077
  0.3873883245478282  0.2220960725606815  0.5024300793003533
  0.4427924016763427  0.1938687906386676  0.5026578358898135
  0.4701110667291459  0.1389645876223469  0.5034122048272280
  0.4426535439984818  0.1111845058338616  0.5040740720927204
  0.3873429781657620  0.1392836415145453  0.5034112364082119
  0.3599389224417351  0.1941927441150781  0.5026429317105112
  0.3873640551945101  0.3873640551945101  0.5026783626305544
  0.4427716077230315  0.3599741197886814  0.5027793425091289
  0.4701515408890131  0.3874316542039438  0.5034185164501110
  0.4427448369098670  0.4427448369098670  0.5040972397886208
  0.3874316542039438  0.4701515408890131  0.5034185164501110
  0.3599741197886814  0.4427716077230315  0.5027793425091289
  0.2220960725606815  0.3873883245478282  0.5024300793003533
  0.1938687906386676  0.4427924016763427  0.5026578358898135
  0.1389645876223469  0.4701110667291459  0.5034122048272280
  0.1111845058338616  0.4426535439984818  0.5040740720927204
  0.1392836415145453  0.3873429781657620  0.5034112364082119
  0.1941927441150781  0.3599389224417351  0.5026429317105112
  0.6394617466966750  0.6394617466966750  0.4992908810767673
  0.6394012732994270  0.7172048127691113  0.4992328035717861
  0.7172048127691113  0.6394012732994270  0.4992328035717861
  0.6101906877087302  0.7755934332363736  0.5007268330773442
  0.5547667726660563  0.8038081390820793  0.5018239279523158
  0.5274655668428636  0.8586593266700433  0.5051742659668434
  0.5548286508197720  0.8865115088321147  0.5078693858918513
  0.6101058206078633  0.8584212753012395  0.5050952521765950
  0.6375553670645502  0.8035806967511547  0.5017603636284562
  0.6102996362412867  0.6102996362412867  0.5008181131651384
  0.5548733353377315  0.6376581138739468  0.5019079649242997
  0.5275616296746080  0.6101953885857299  0.5053367863646301
  0.5549202940516480  0.5549202940516480  0.5081274460984915
  0.6101953885857299  0.5275616296746080  0.5053367863646301
  0.6376581138739468  0.5548733353377315  0.5019079649242997
  0.7755934332363736  0.6101906877087302  0.5007268330773442
  0.8038081390820793  0.5547667726660563  0.5018239279523158
  0.8586593266700433  0.5274655668428636  0.5051742659668434
  0.8865115088321147  0.5548286508197720  0.5078693858918513
  0.8584212753012395  0.6101058206078633  0.5050952521765950
  0.8035806967511547  0.6375553670645502  0.5017603636284562
  0.5254803356782531  0.9454041219419480  0.5107521542167959
  0.4720136976597757  0.0524368024690460  0.5061598911630938
  0.5097904252615706  0.9767994258168144  0.5698760734976460
  0.5450614140868169  0.9059977662984835  0.6539749133000399
  0.5255181684912813  0.5255181684912813  0.5109981587598469
  0.4720797332807578  0.4720797332807578  0.5062547964343409
  0.5098159835629303  0.5098159835629303  0.5700815518070428
  0.5451291138218153  0.5451291138218153  0.6542104265203648
  0.9454041219419480  0.5254803356782531  0.5107521542167959
  0.9767994258168144  0.5097904252615706  0.5698760734976460
  0.9059977662984835  0.5450614140868169  0.6539749133000399
  0.4873838378454565  0.0218262589740092  0.4478153532217704
  0.4873888250733600  0.4873888250733600  0.4479516936555186
  0.5179321430430264  0.9605011273334441  0.6345486746343667
  0.5179159662701238  0.5179159662701238  0.6347902861250105
  0.9605011273334441  0.5179321430430264  0.6345486746343667
  0.0294523559578366  0.4835343919383064  0.5662784952801303
  0.3865715737292206  0.3051736533886782  0.5028292547336406
  0.3052815419649235  0.3052815419649235  0.5019571655850967
  0.3051736533886782  0.3865715737292206  0.5028292547336406
  0.6111432527600869  0.6924994138727101  0.4991906948443017
  0.6924330744704719  0.6924330744704719  0.4990961110344827
  0.6924994138727101  0.6111432527600869  0.4991906948443017
  0.4835343919383064  0.0294523559578366  0.5662784952801303
  0.4835314775414403  0.4835314775414403  0.5664256641720229
  0.5137390797165509  0.9691939366706990  0.4507823605810231
  0.5136730318060643  0.5136730318060643  0.4509807446014946
  0.9691939366706990  0.5137390797165509  0.4507823605810231
 
  0.00000000E+00  0.00000000E+00  0.00000000E+00
  0.00000000E+00  0.00000000E+00  0.00000000E+00
  0.00000000E+00  0.00000000E+00  0.00000000E+00
  0.00000000E+00  0.00000000E+00  0.00000000E+00
  0.00000000E+00  0.00000000E+00  0.00000000E+00
  0.00000000E+00  0.00000000E+00  0.00000000E+00
  0.00000000E+00  0.00000000E+00  0.00000000E+00
  0.00000000E+00  0.00000000E+00  0.00000000E+00
  0.00000000E+00  0.00000000E+00  0.00000000E+00
  0.00000000E+00  0.00000000E+00  0.00000000E+00
  0.00000000E+00  0.00000000E+00  0.00000000E+00
  0.00000000E+00  0.00000000E+00  0.00000000E+00
  0.00000000E+00  0.00000000E+00  0.00000000E+00
  0.00000000E+00  0.00000000E+00  0.00000000E+00
  0.00000000E+00  0.00000000E+00  0.00000000E+00
  0.00000000E+00  0.00000000E+00  0.00000000E+00
  0.00000000E+00  0.00000000E+00  0.00000000E+00
  0.00000000E+00  0.00000000E+00  0.00000000E+00
  0.00000000E+00  0.00000000E+00  0.00000000E+00
  0.00000000E+00  0.00000000E+00  0.00000000E+00
  0.00000000E+00  0.00000000E+00  0.00000000E+00
  0.00000000E+00  0.00000000E+00  0.00000000E+00
  0.00000000E+00  0.00000000E+00  0.00000000E+00
  0.00000000E+00  0.00000000E+00  0.00000000E+00
  0.00000000E+00  0.00000000E+00  0.00000000E+00
  0.00000000E+00  0.00000000E+00  0.00000000E+00
  0.00000000E+00  0.00000000E+00  0.00000000E+00
  0.00000000E+00  0.00000000E+00  0.00000000E+00
  0.00000000E+00  0.00000000E+00  0.00000000E+00
  0.00000000E+00  0.00000000E+00  0.00000000E+00
  0.00000000E+00  0.00000000E+00  0.00000000E+00
  0.00000000E+00  0.00000000E+00  0.00000000E+00
  0.00000000E+00  0.00000000E+00  0.00000000E+00
  0.00000000E+00  0.00000000E+00  0.00000000E+00
  0.00000000E+00  0.00000000E+00  0.00000000E+00
  0.00000000E+00  0.00000000E+00  0.00000000E+00
  0.00000000E+00  0.00000000E+00  0.00000000E+00
  0.00000000E+00  0.00000000E+00  0.00000000E+00
  0.00000000E+00  0.00000000E+00  0.00000000E+00
  0.00000000E+00  0.00000000E+00  0.00000000E+00
  0.00000000E+00  0.00000000E+00  0.00000000E+00
  0.00000000E+00  0.00000000E+00  0.00000000E+00
  0.00000000E+00  0.00000000E+00  0.00000000E+00
  0.00000000E+00  0.00000000E+00  0.00000000E+00
  0.00000000E+00  0.00000000E+00  0.00000000E+00
  0.00000000E+00  0.00000000E+00  0.00000000E+00
  0.00000000E+00  0.00000000E+00  0.00000000E+00
  0.00000000E+00  0.00000000E+00  0.00000000E+00
  0.00000000E+00  0.00000000E+00  0.00000000E+00
  0.00000000E+00  0.00000000E+00  0.00000000E+00
  0.00000000E+00  0.00000000E+00  0.00000000E+00
  0.00000000E+00  0.00000000E+00  0.00000000E+00
  0.00000000E+00  0.00000000E+00  0.00000000E+00
  0.00000000E+00  0.00000000E+00  0.00000000E+00
  0.00000000E+00  0.00000000E+00  0.00000000E+00
  0.00000000E+00  0.00000000E+00  0.00000000E+00
  0.00000000E+00  0.00000000E+00  0.00000000E+00
  0.00000000E+00  0.00000000E+00  0.00000000E+00
  0.00000000E+00  0.00000000E+00  0.00000000E+00
  0.00000000E+00  0.00000000E+00  0.00000000E+00
  0.00000000E+00  0.00000000E+00  0.00000000E+00
  0.00000000E+00  0.00000000E+00  0.00000000E+00
  0.00000000E+00  0.00000000E+00  0.00000000E+00
  0.00000000E+00  0.00000000E+00  0.00000000E+00
  0.00000000E+00  0.00000000E+00  0.00000000E+00
  0.00000000E+00  0.00000000E+00  0.00000000E+00
  0.00000000E+00  0.00000000E+00  0.00000000E+00
  0.00000000E+00  0.00000000E+00  0.00000000E+00
  0.00000000E+00  0.00000000E+00  0.00000000E+00
  0.00000000E+00  0.00000000E+00  0.00000000E+00
  0.00000000E+00  0.00000000E+00  0.00000000E+00
  0.00000000E+00  0.00000000E+00  0.00000000E+00
  0.00000000E+00  0.00000000E+00  0.00000000E+00
  0.00000000E+00  0.00000000E+00  0.00000000E+00
  0.00000000E+00  0.00000000E+00  0.00000000E+00
  0.00000000E+00  0.00000000E+00  0.00000000E+00
  0.00000000E+00  0.00000000E+00  0.00000000E+00
  0.00000000E+00  0.00000000E+00  0.00000000E+00
  0.00000000E+00  0.00000000E+00  0.00000000E+00
  0.00000000E+00  0.00000000E+00  0.00000000E+00
  0.00000000E+00  0.00000000E+00  0.00000000E+00
  0.00000000E+00  0.00000000E+00  0.00000000E+00
  0.00000000E+00  0.00000000E+00  0.00000000E+00
  0.00000000E+00  0.00000000E+00  0.00000000E+00
  0.00000000E+00  0.00000000E+00  0.00000000E+00
  0.00000000E+00  0.00000000E+00  0.00000000E+00
  0.00000000E+00  0.00000000E+00  0.00000000E+00
  0.00000000E+00  0.00000000E+00  0.00000000E+00
  0.00000000E+00  0.00000000E+00  0.00000000E+00
  0.00000000E+00  0.00000000E+00  0.00000000E+00
  0.00000000E+00  0.00000000E+00  0.00000000E+00
  0.00000000E+00  0.00000000E+00  0.00000000E+00
  0.00000000E+00  0.00000000E+00  0.00000000E+00
  0.00000000E+00  0.00000000E+00  0.00000000E+00
  0.00000000E+00  0.00000000E+00  0.00000000E+00
  0.00000000E+00  0.00000000E+00  0.00000000E+00
  0.00000000E+00  0.00000000E+00  0.00000000E+00
  0.00000000E+00  0.00000000E+00  0.00000000E+00
  0.00000000E+00  0.00000000E+00  0.00000000E+00
  0.00000000E+00  0.00000000E+00  0.00000000E+00
  0.00000000E+00  0.00000000E+00  0.00000000E+00
  0.00000000E+00  0.00000000E+00  0.00000000E+00
  0.00000000E+00  0.00000000E+00  0.00000000E+00
  0.00000000E+00  0.00000000E+00  0.00000000E+00
  0.00000000E+00  0.00000000E+00  0.00000000E+00
  0.00000000E+00  0.00000000E+00  0.00000000E+00
  0.00000000E+00  0.00000000E+00  0.00000000E+00
  0.00000000E+00  0.00000000E+00  0.00000000E+00
