Primitive Cell                          
   1.00000000000000     
    22.4302507121881050    0.0056588450303955    0.0000000000000000
   -11.2101955953309176   19.3748975141178406    0.0000000000000000
     0.0000000000000000    0.0000000000000000   20.0000000000000000
   N    C    O    H 
    12    36    18    18
Direct
  0.5792977245295532  0.6265782467344252  0.5865656445670524
  0.4510061692683678  0.5937211712147388  0.5199450566574910
  0.0449575189600324  0.4130424965516184  0.5867885474236800
  0.1411432811915958  0.5419305708530544  0.5203003844238268
  0.3672378011772679  0.9492405323001663  0.5870732900873463
  0.3999472740399099  0.8526063354830526  0.5223736823958305
  0.4004751092446810  0.4884413096680333  0.4112998845689191
  0.5760799358571447  0.4340015909551695  0.4686456667463901
  0.0867978023708673  0.5927758769554359  0.4117247657093657
  0.8564371106226076  0.4183754613731878  0.4704821789519897
  0.5066921211163660  0.9062904347920551  0.4151643382130317
  0.5604042210771141  0.1374022936256551  0.4692036255064380
  0.7325030131851022  0.3437514855075463  0.4794702413927538
  0.6777037135284800  0.2754904144402914  0.4793627316446276
  0.6097047284891346  0.2615651366751734  0.4786258996861150
  0.5963838799621684  0.3164381039459414  0.4785069285044372
  0.7186574985592458  0.3979928532552179  0.4793296783032304
  0.8034193665693508  0.3536854104926022  0.4873000659785163
  0.5486431310102944  0.1904110972561313  0.4858071177786840
  0.2592548780662938  0.6362769493779226  0.5316335389682010
  0.3045248569275074  0.7077208956525212  0.5328134387750083
  0.3756513781499962  0.7341755095984581  0.5334526486804663
  0.4016601884782105  0.6888371646682359  0.5330047284910080
  0.2856265778636384  0.5914661387169460  0.5310718776364638
  0.1844832529309102  0.6130408991657887  0.5242560772543214
  0.4274700975050933  0.8092434547997129  0.5276341111256571
  0.4834031138596870  0.5568796224415777  0.5049142882591866
  0.5458398657791719  0.5710571430298259  0.5366336907354139
  0.5784701764579339  0.5330281215540893  0.5245785175021140
  0.0719030147873454  0.5097177689892263  0.5055139327560241
  0.0233606829722390  0.4472698058890785  0.5373160292535388
  0.9527054218487478  0.4151540554693867  0.5256696019711455
  0.4371639473245992  0.9218325728518835  0.5069608852852312
  0.4228690616089281  0.9705963614955877  0.5375529930745913
  0.4609709500452510  0.0412221724786264  0.5248707245323203
  0.6505487918437822  0.3846001343915546  0.4786310106079839
  0.6405650590654872  0.4457180187678347  0.4858711609048925
  0.3569119517486001  0.6175647425860831  0.5316541466598395
  0.3801042703347477  0.5658974598849440  0.5240829619027849
  0.5488570773515562  0.4773125479138756  0.4803508002056631
  0.4880665416503334  0.4626377144914144  0.4470311383686862
  0.4573642305207599  0.5022153316541775  0.4579277667940005
  0.9269000755527586  0.4452185553344563  0.4817867462770593
  0.9732707403644412  0.5059080049744011  0.4482460290530241
  0.0435243230186870  0.5360915631302490  0.4586821518209305
  0.5170380379783097  0.0668673956056907  0.4812679906455202
  0.5319963881766796  0.0202879001170544  0.4491344441472904
  0.4922802389852023  0.9499936268453482  0.4605358147516014
  0.6869584452005384  0.5014703578507991  0.5071813680662558
  0.8123799867298231  0.3070190990653714  0.5085209449410542
  0.4928729191980707  0.1812337666924222  0.5065698466982695
  0.3393600765839153  0.5035331646942183  0.5199234804298243
  0.1630874045671860  0.6539134549304322  0.5201572785867938
  0.4898069636343436  0.8308826350761365  0.5254758231139434
  0.6221014247016257  0.6254284832947903  0.6244955132951020
  0.5631390186232892  0.6727320276296922  0.5880088189506836
  0.0006011095877341  0.3690633071174219  0.6236671346326972
  0.1073166444423066  0.4297157923663235  0.5889351711803030
  0.3681449259839766  0.9938456965139579  0.6239960088555065
  0.3212340117394277  0.8868356514938043  0.5892991215563086
  0.3613773097540900  0.4277423977227883  0.3951281553778543
  0.3990188735220244  0.5391678625731160  0.3887781349052020
  0.0656064292700407  0.6321102264771312  0.3954211113542954
  0.1386398472088075  0.5937849064005292  0.3891499658257231
  0.5674613211096897  0.9278595936388072  0.3997804491276611
  0.4564193966452024  0.8534993277250322  0.3929744587613868
  0.5425027331016068  0.3028917381941056  0.4825145599249652
  0.7589893936786396  0.4519666109880092  0.4839200049672101
  0.6911300958436613  0.2350475883149699  0.4840273238727946
  0.4575571001891205  0.7123545966590257  0.5309758677576326
  0.2531122105221826  0.5355599483350346  0.5273287143071457
  0.2812303252156667  0.7403289462803784  0.5304833401033804
  0.6262000276367061  0.5469297505892996  0.5504964240266403
  0.4832690348923521  0.6402098710580120  0.5422119143087798
  0.9186647919298352  0.3674174680692346  0.5516536773996066
  0.1550228622065859  0.5096596965203659  0.5430630689226561
  0.4468607080830509  0.0754024035525447  0.5498797794184753
  0.3533287055757626  0.8386946253186451  0.5439628251116204
  0.4641086727282300  0.4207843161970644  0.4107173349150983
  0.5443350468582580  0.3890517756137442  0.4447884649776341
  0.9555938828405246  0.5301507323383419  0.4120887331771641
  0.8435033071465980  0.4503146508028593  0.4466698690574944
  0.5742183579745088  0.0378225264146224  0.4133855113164131
  0.6054550431184893  0.1504585495355286  0.4458090437567819
 
  0.00000000E+00  0.00000000E+00  0.00000000E+00
  0.00000000E+00  0.00000000E+00  0.00000000E+00
  0.00000000E+00  0.00000000E+00  0.00000000E+00
  0.00000000E+00  0.00000000E+00  0.00000000E+00
  0.00000000E+00  0.00000000E+00  0.00000000E+00
  0.00000000E+00  0.00000000E+00  0.00000000E+00
  0.00000000E+00  0.00000000E+00  0.00000000E+00
  0.00000000E+00  0.00000000E+00  0.00000000E+00
  0.00000000E+00  0.00000000E+00  0.00000000E+00
  0.00000000E+00  0.00000000E+00  0.00000000E+00
  0.00000000E+00  0.00000000E+00  0.00000000E+00
  0.00000000E+00  0.00000000E+00  0.00000000E+00
  0.00000000E+00  0.00000000E+00  0.00000000E+00
  0.00000000E+00  0.00000000E+00  0.00000000E+00
  0.00000000E+00  0.00000000E+00  0.00000000E+00
  0.00000000E+00  0.00000000E+00  0.00000000E+00
  0.00000000E+00  0.00000000E+00  0.00000000E+00
  0.00000000E+00  0.00000000E+00  0.00000000E+00
  0.00000000E+00  0.00000000E+00  0.00000000E+00
  0.00000000E+00  0.00000000E+00  0.00000000E+00
  0.00000000E+00  0.00000000E+00  0.00000000E+00
  0.00000000E+00  0.00000000E+00  0.00000000E+00
  0.00000000E+00  0.00000000E+00  0.00000000E+00
  0.00000000E+00  0.00000000E+00  0.00000000E+00
  0.00000000E+00  0.00000000E+00  0.00000000E+00
  0.00000000E+00  0.00000000E+00  0.00000000E+00
  0.00000000E+00  0.00000000E+00  0.00000000E+00
  0.00000000E+00  0.00000000E+00  0.00000000E+00
  0.00000000E+00  0.00000000E+00  0.00000000E+00
  0.00000000E+00  0.00000000E+00  0.00000000E+00
  0.00000000E+00  0.00000000E+00  0.00000000E+00
  0.00000000E+00  0.00000000E+00  0.00000000E+00
  0.00000000E+00  0.00000000E+00  0.00000000E+00
  0.00000000E+00  0.00000000E+00  0.00000000E+00
  0.00000000E+00  0.00000000E+00  0.00000000E+00
  0.00000000E+00  0.00000000E+00  0.00000000E+00
  0.00000000E+00  0.00000000E+00  0.00000000E+00
  0.00000000E+00  0.00000000E+00  0.00000000E+00
  0.00000000E+00  0.00000000E+00  0.00000000E+00
  0.00000000E+00  0.00000000E+00  0.00000000E+00
  0.00000000E+00  0.00000000E+00  0.00000000E+00
  0.00000000E+00  0.00000000E+00  0.00000000E+00
  0.00000000E+00  0.00000000E+00  0.00000000E+00
  0.00000000E+00  0.00000000E+00  0.00000000E+00
  0.00000000E+00  0.00000000E+00  0.00000000E+00
  0.00000000E+00  0.00000000E+00  0.00000000E+00
  0.00000000E+00  0.00000000E+00  0.00000000E+00
  0.00000000E+00  0.00000000E+00  0.00000000E+00
  0.00000000E+00  0.00000000E+00  0.00000000E+00
  0.00000000E+00  0.00000000E+00  0.00000000E+00
  0.00000000E+00  0.00000000E+00  0.00000000E+00
  0.00000000E+00  0.00000000E+00  0.00000000E+00
  0.00000000E+00  0.00000000E+00  0.00000000E+00
  0.00000000E+00  0.00000000E+00  0.00000000E+00
  0.00000000E+00  0.00000000E+00  0.00000000E+00
  0.00000000E+00  0.00000000E+00  0.00000000E+00
  0.00000000E+00  0.00000000E+00  0.00000000E+00
  0.00000000E+00  0.00000000E+00  0.00000000E+00
  0.00000000E+00  0.00000000E+00  0.00000000E+00
  0.00000000E+00  0.00000000E+00  0.00000000E+00
  0.00000000E+00  0.00000000E+00  0.00000000E+00
  0.00000000E+00  0.00000000E+00  0.00000000E+00
  0.00000000E+00  0.00000000E+00  0.00000000E+00
  0.00000000E+00  0.00000000E+00  0.00000000E+00
  0.00000000E+00  0.00000000E+00  0.00000000E+00
  0.00000000E+00  0.00000000E+00  0.00000000E+00
  0.00000000E+00  0.00000000E+00  0.00000000E+00
  0.00000000E+00  0.00000000E+00  0.00000000E+00
  0.00000000E+00  0.00000000E+00  0.00000000E+00
  0.00000000E+00  0.00000000E+00  0.00000000E+00
  0.00000000E+00  0.00000000E+00  0.00000000E+00
  0.00000000E+00  0.00000000E+00  0.00000000E+00
  0.00000000E+00  0.00000000E+00  0.00000000E+00
  0.00000000E+00  0.00000000E+00  0.00000000E+00
  0.00000000E+00  0.00000000E+00  0.00000000E+00
  0.00000000E+00  0.00000000E+00  0.00000000E+00
  0.00000000E+00  0.00000000E+00  0.00000000E+00
  0.00000000E+00  0.00000000E+00  0.00000000E+00
  0.00000000E+00  0.00000000E+00  0.00000000E+00
  0.00000000E+00  0.00000000E+00  0.00000000E+00
  0.00000000E+00  0.00000000E+00  0.00000000E+00
  0.00000000E+00  0.00000000E+00  0.00000000E+00
  0.00000000E+00  0.00000000E+00  0.00000000E+00
  0.00000000E+00  0.00000000E+00  0.00000000E+00
