Primitive Cell                          
   1.00000000000000     
    14.6932539545557805    0.0000000002195127    0.0000000000000000
    -7.3466269774679986   12.7247311887917149    0.0000000000000000
     0.0000000000000000    0.0000000000000000   20.0000000000000000
   H    C    N 
    12    24     6
Direct
  0.2355832057982781  0.4711356404619096  0.4875395220849938
  0.5288643595380904  0.7644475653363685  0.4875395220849938
  0.4565953725100300  0.5434121351799988  0.3796111091344798
  0.4567388943081170  0.5432620752643373  0.5953527146514261
  0.7644486837688689  0.2356122188237890  0.4874164988765983
  0.0868167626699616  0.5434046274899700  0.3796111091344798
  0.4565878648200012  0.9131832373300384  0.3796111091344798
  0.0865231809562133  0.5432611056918830  0.5953527146514261
  0.4567379247356627  0.9134768190437867  0.5953527146514261
  0.2355524346636315  0.7644167942017219  0.4875395220849938
  0.7643877811762181  0.5288364649450870  0.4874164988765983
  0.4711635350549130  0.2355513162311311  0.4874164988765983
  0.3886116089999021  0.6114031402357796  0.4875355171480749
  0.4431014678401013  0.7215578781035319  0.4875398468635126
  0.2784564102634235  0.5568985321598987  0.4875398468635126
  0.4763255874670946  0.5236743309918026  0.4282530774415250
  0.4763924659916512  0.5236021480812241  0.5466647956265618
  0.4469158797128898  0.5530988089882172  0.4874901854556839
  0.3885968597642204  0.7772084687641225  0.4875355171480749
  0.2227915312358775  0.6113883910000979  0.4875355171480749
  0.2784421218964681  0.7215435897365765  0.4875398468635126
  0.0473487435247009  0.5236744125329054  0.4282530774415250
  0.4763256690081974  0.9526512564752991  0.4282530774415250
  0.0472096820895729  0.5236075340083488  0.5466647956265618
  0.1061829292753202  0.5530841202871102  0.4874901854556839
  0.4763978519187759  0.9527903179104271  0.5466647956265618
  0.4469011910117828  0.8938170707246798  0.4874901854556839
  0.6116926943976750  0.3882779882907741  0.4873768586289984
  0.5568988901492560  0.2784348091008937  0.4873914771390204
  0.6117220117092259  0.2234147061069081  0.4873768586289984
  0.7215651908991063  0.2784640810483694  0.4873914771390204
  0.7765852938930919  0.3883073056023250  0.4873768586289984
  0.7215359189516306  0.4431011098507440  0.4873914771390204
  0.8939673043676066  0.4470023152222140  0.4873610901093741
  0.5530350108546074  0.1060326956323934  0.4873610901093741
  0.5529976847777860  0.4469649891453926  0.4873610901093741
  0.9421511955511690  0.4710849783369966  0.4274571444010675
  0.5289337827858205  0.0578488044488310  0.4274571444010675
  0.5289150216630034  0.4710662172141795  0.4274571444010675
  0.9420279305390977  0.4710284832105387  0.5472811596586808
  0.5290005526714339  0.0579720694609023  0.5472811596586808
  0.5289715167894542  0.4709994473285661  0.5472811596586808
 
  0.00000000E+00  0.00000000E+00  0.00000000E+00
  0.00000000E+00  0.00000000E+00  0.00000000E+00
  0.00000000E+00  0.00000000E+00  0.00000000E+00
  0.00000000E+00  0.00000000E+00  0.00000000E+00
  0.00000000E+00  0.00000000E+00  0.00000000E+00
  0.00000000E+00  0.00000000E+00  0.00000000E+00
  0.00000000E+00  0.00000000E+00  0.00000000E+00
  0.00000000E+00  0.00000000E+00  0.00000000E+00
  0.00000000E+00  0.00000000E+00  0.00000000E+00
  0.00000000E+00  0.00000000E+00  0.00000000E+00
  0.00000000E+00  0.00000000E+00  0.00000000E+00
  0.00000000E+00  0.00000000E+00  0.00000000E+00
  0.00000000E+00  0.00000000E+00  0.00000000E+00
  0.00000000E+00  0.00000000E+00  0.00000000E+00
  0.00000000E+00  0.00000000E+00  0.00000000E+00
  0.00000000E+00  0.00000000E+00  0.00000000E+00
  0.00000000E+00  0.00000000E+00  0.00000000E+00
  0.00000000E+00  0.00000000E+00  0.00000000E+00
  0.00000000E+00  0.00000000E+00  0.00000000E+00
  0.00000000E+00  0.00000000E+00  0.00000000E+00
  0.00000000E+00  0.00000000E+00  0.00000000E+00
  0.00000000E+00  0.00000000E+00  0.00000000E+00
  0.00000000E+00  0.00000000E+00  0.00000000E+00
  0.00000000E+00  0.00000000E+00  0.00000000E+00
  0.00000000E+00  0.00000000E+00  0.00000000E+00
  0.00000000E+00  0.00000000E+00  0.00000000E+00
  0.00000000E+00  0.00000000E+00  0.00000000E+00
  0.00000000E+00  0.00000000E+00  0.00000000E+00
  0.00000000E+00  0.00000000E+00  0.00000000E+00
  0.00000000E+00  0.00000000E+00  0.00000000E+00
  0.00000000E+00  0.00000000E+00  0.00000000E+00
  0.00000000E+00  0.00000000E+00  0.00000000E+00
  0.00000000E+00  0.00000000E+00  0.00000000E+00
  0.00000000E+00  0.00000000E+00  0.00000000E+00
  0.00000000E+00  0.00000000E+00  0.00000000E+00
  0.00000000E+00  0.00000000E+00  0.00000000E+00
  0.00000000E+00  0.00000000E+00  0.00000000E+00
  0.00000000E+00  0.00000000E+00  0.00000000E+00
  0.00000000E+00  0.00000000E+00  0.00000000E+00
  0.00000000E+00  0.00000000E+00  0.00000000E+00
  0.00000000E+00  0.00000000E+00  0.00000000E+00
  0.00000000E+00  0.00000000E+00  0.00000000E+00
