Primitive Cell                          
   1.00000000000000     
    29.2688918871861716    0.0000000000000000    0.0000000000000000
   -14.6344459435930858   25.3476039149234715    0.0000000000000000
     0.0000000000000000    0.0000000000000000   20.0000000000000000
   H    N    C 
    33    15    54
Direct
  0.0445409290686314  0.5222704645343228  0.3967333633730377
  0.5143263318709046  0.8815349503065306  0.5041500678041899
  0.4648743170923382  0.7830231605258007  0.5029401571097196
  0.3672086184356189  0.8815349503065306  0.5041500678041899
  0.3181488434334625  0.7830231605258007  0.5029401571097196
  0.2169768394741993  0.6818511565665375  0.5029401571097196
  0.1184650496934694  0.6327913815643811  0.5041500678041899
  0.2169768394741993  0.5351256829076618  0.5029401571097196
  0.1184650496934694  0.4856736681290954  0.5041500678041899
  0.3181488434334625  0.5351256829076618  0.5029401571097196
  0.3672086184356189  0.4856736681290954  0.5041500678041899
  0.5143263318709046  0.6327913815643811  0.5041500678041899
  0.4648743170923382  0.6818511565665375  0.5029401571097196
  0.4856716509624448  0.1184979529599346  0.5039979891740032
  0.5351533189617612  0.2170383433225425  0.5037726866237193
  0.6328263019974756  0.1184979529599346  0.5039979891740032
  0.6818850243607741  0.2170383433225425  0.5037726866237193
  0.7829616566774575  0.3181149756392259  0.5037726866237193
  0.8815020470400654  0.3671736980025173  0.5039979891740032
  0.7829616566774575  0.4648466810382388  0.5037726866237193
  0.8815020470400654  0.5143283490375552  0.5039979891740032
  0.6818850243607741  0.4648466810382388  0.5037726866237193
  0.6328263019974756  0.5143283490375552  0.5039979891740032
  0.4856716509624448  0.3671736980025173  0.5039979891740032
  0.5351533189617612  0.3181149756392259  0.5037726866237193
  0.5441364238908761  0.4558635761091239  0.6289631986878348
  0.5130395845770792  0.4869604154229208  0.6671309944804591
  0.5441364238908761  0.0882728477817594  0.6289631986878348
  0.5130395845770792  0.0260791691541797  0.6671309944804591
  0.9117271522182406  0.4558635761091239  0.6289631986878348
  0.9739208308458203  0.4869604154229208  0.6671309944804591
  0.4777295354656772  0.5222704645343228  0.3967333633730377
  0.4777295354656772  0.9554590709313686  0.3967333633730377
  0.0290107832459583  0.5145053916229827  0.5646425943457913
  0.3875451838025725  0.6937725919012792  0.5025126825086943
  0.3062274080987208  0.6124548161974275  0.5025126825086943
  0.3062274080987208  0.6937725919012792  0.5025126825086943
  0.6124636792185925  0.3062318396092962  0.5036153959846033
  0.6937681603907038  0.3875363207814075  0.5036153959846033
  0.6937681603907038  0.3062318396092962  0.5036153959846033
  0.4854946083770244  0.5145053916229827  0.5646425943457913
  0.5242710490386315  0.4757289509613685  0.6253385680625456
  0.4854946083770244  0.9709892167540417  0.5646425943457913
  0.5242710490386315  0.0485420980772631  0.6253385680625456
  0.9514579019227369  0.4757289509613685  0.6253385680625456
  0.5141953842555154  0.4858046157444846  0.4449256972614464
  0.5141953842555154  0.0283907685110378  0.4449256972614464
  0.9716092314889622  0.4858046157444846  0.4449256972614464
  0.0246392983176804  0.5123196491588473  0.4451375689701180
  0.0532932309539191  0.5266466154769702  0.5049411995950450
  0.3592578665026451  0.7185157330052832  0.5025527636684970
  0.3592578665026451  0.6407421334973549  0.5025527636684970
  0.2814842669947168  0.6407421334973549  0.5025527636684970
  0.3884559365949443  0.6115440634050557  0.5029178654714030
  0.4438751350422265  0.6388787126085020  0.5031908595154562
  0.4712808103957826  0.6113652348317515  0.5038874981219976
  0.4439622472545111  0.5560377527454889  0.5044728379681018
  0.3886347651682485  0.5287191896042174  0.5038874981219976
  0.3611212873914980  0.5561248649577735  0.5031908595154562
  0.3884559365949443  0.7769118731898956  0.5029178654714030
  0.4438751350422265  0.8049964224337245  0.5031908595154562
  0.4712808103957826  0.8599155755640169  0.5038874981219976
  0.4439622472545111  0.8879244945090221  0.5044728379681018
  0.3886347651682485  0.8599155755640169  0.5038874981219976
  0.3611212873914980  0.8049964224337245  0.5031908595154562
  0.2230881268101044  0.6115440634050557  0.5029178654714030
  0.1950035775662755  0.6388787126085020  0.5031908595154562
  0.1400844244359831  0.6113652348317515  0.5038874981219976
  0.1120755054909779  0.5560377527454889  0.5044728379681018
  0.1400844244359831  0.5287191896042174  0.5038874981219976
  0.1950035775662755  0.5561248649577735  0.5031908595154562
  0.6407471342645721  0.2814942685291442  0.5036354525432429
  0.6407471342645650  0.3592528657354279  0.5036354525432429
  0.7185057314708558  0.3592528657354350  0.5036354525432429
  0.6115528325650743  0.3884471674349257  0.5040077023331762
  0.5561324947648245  0.3610909507919970  0.5041599968319375
  0.5287216138778774  0.3886064756259984  0.5043636703021477
  0.5560037290474327  0.4439962709525673  0.5040258252321195
  0.6113935243740087  0.4712783861221226  0.5043636703021477
  0.6389090492080030  0.4438675052351755  0.5041599968319375
  0.6115528325650743  0.2231056651301628  0.5040077023331762
  0.5561324947648245  0.1950415439728204  0.5041599968319375
  0.5287216138778774  0.1401151382519004  0.5043636703021477
  0.5560037290474327  0.1120074580948653  0.5040258252321195
  0.6113935243740087  0.1401151382519004  0.5043636703021477
  0.6389090492080030  0.1950415439728204  0.5041599968319375
  0.7768943348698372  0.3884471674349257  0.5040077023331762
  0.8049584560271796  0.3610909507919970  0.5041599968319375
  0.8598848617480996  0.3886064756259984  0.5043636703021477
  0.8879925419051347  0.4439962709525673  0.5040258252321195
  0.8598848617480996  0.4712783861221226  0.5043636703021477
  0.8049584560271796  0.4438675052351755  0.5041599968319375
  0.5265997372910718  0.4734002627089282  0.5035839421507120
  0.4733533845230298  0.5266466154769702  0.5049411995950450
  0.5120051184321142  0.4879948815678858  0.5646546259268419
  0.5265997372910718  0.0531994745821578  0.5035839421507120
  0.4733533845230298  0.9467067690460809  0.5049411995950450
  0.5120051184321142  0.0240102368642212  0.5646546259268419
  0.9468005254178422  0.4734002627089282  0.5035839421507120
  0.9759897631357788  0.4879948815678858  0.5646546259268419
  0.4876803508411527  0.5123196491588473  0.4451375689701180
  0.4876803508411527  0.9753607016823196  0.4451375689701180
 
  0.00000000E+00  0.00000000E+00  0.00000000E+00
  0.00000000E+00  0.00000000E+00  0.00000000E+00
  0.00000000E+00  0.00000000E+00  0.00000000E+00
  0.00000000E+00  0.00000000E+00  0.00000000E+00
  0.00000000E+00  0.00000000E+00  0.00000000E+00
  0.00000000E+00  0.00000000E+00  0.00000000E+00
  0.00000000E+00  0.00000000E+00  0.00000000E+00
  0.00000000E+00  0.00000000E+00  0.00000000E+00
  0.00000000E+00  0.00000000E+00  0.00000000E+00
  0.00000000E+00  0.00000000E+00  0.00000000E+00
  0.00000000E+00  0.00000000E+00  0.00000000E+00
  0.00000000E+00  0.00000000E+00  0.00000000E+00
  0.00000000E+00  0.00000000E+00  0.00000000E+00
  0.00000000E+00  0.00000000E+00  0.00000000E+00
  0.00000000E+00  0.00000000E+00  0.00000000E+00
  0.00000000E+00  0.00000000E+00  0.00000000E+00
  0.00000000E+00  0.00000000E+00  0.00000000E+00
  0.00000000E+00  0.00000000E+00  0.00000000E+00
  0.00000000E+00  0.00000000E+00  0.00000000E+00
  0.00000000E+00  0.00000000E+00  0.00000000E+00
  0.00000000E+00  0.00000000E+00  0.00000000E+00
  0.00000000E+00  0.00000000E+00  0.00000000E+00
  0.00000000E+00  0.00000000E+00  0.00000000E+00
  0.00000000E+00  0.00000000E+00  0.00000000E+00
  0.00000000E+00  0.00000000E+00  0.00000000E+00
  0.00000000E+00  0.00000000E+00  0.00000000E+00
  0.00000000E+00  0.00000000E+00  0.00000000E+00
  0.00000000E+00  0.00000000E+00  0.00000000E+00
  0.00000000E+00  0.00000000E+00  0.00000000E+00
  0.00000000E+00  0.00000000E+00  0.00000000E+00
  0.00000000E+00  0.00000000E+00  0.00000000E+00
  0.00000000E+00  0.00000000E+00  0.00000000E+00
  0.00000000E+00  0.00000000E+00  0.00000000E+00
  0.00000000E+00  0.00000000E+00  0.00000000E+00
  0.00000000E+00  0.00000000E+00  0.00000000E+00
  0.00000000E+00  0.00000000E+00  0.00000000E+00
  0.00000000E+00  0.00000000E+00  0.00000000E+00
  0.00000000E+00  0.00000000E+00  0.00000000E+00
  0.00000000E+00  0.00000000E+00  0.00000000E+00
  0.00000000E+00  0.00000000E+00  0.00000000E+00
  0.00000000E+00  0.00000000E+00  0.00000000E+00
  0.00000000E+00  0.00000000E+00  0.00000000E+00
  0.00000000E+00  0.00000000E+00  0.00000000E+00
  0.00000000E+00  0.00000000E+00  0.00000000E+00
  0.00000000E+00  0.00000000E+00  0.00000000E+00
  0.00000000E+00  0.00000000E+00  0.00000000E+00
  0.00000000E+00  0.00000000E+00  0.00000000E+00
  0.00000000E+00  0.00000000E+00  0.00000000E+00
  0.00000000E+00  0.00000000E+00  0.00000000E+00
  0.00000000E+00  0.00000000E+00  0.00000000E+00
  0.00000000E+00  0.00000000E+00  0.00000000E+00
  0.00000000E+00  0.00000000E+00  0.00000000E+00
  0.00000000E+00  0.00000000E+00  0.00000000E+00
  0.00000000E+00  0.00000000E+00  0.00000000E+00
  0.00000000E+00  0.00000000E+00  0.00000000E+00
  0.00000000E+00  0.00000000E+00  0.00000000E+00
  0.00000000E+00  0.00000000E+00  0.00000000E+00
  0.00000000E+00  0.00000000E+00  0.00000000E+00
  0.00000000E+00  0.00000000E+00  0.00000000E+00
  0.00000000E+00  0.00000000E+00  0.00000000E+00
  0.00000000E+00  0.00000000E+00  0.00000000E+00
  0.00000000E+00  0.00000000E+00  0.00000000E+00
  0.00000000E+00  0.00000000E+00  0.00000000E+00
  0.00000000E+00  0.00000000E+00  0.00000000E+00
  0.00000000E+00  0.00000000E+00  0.00000000E+00
  0.00000000E+00  0.00000000E+00  0.00000000E+00
  0.00000000E+00  0.00000000E+00  0.00000000E+00
  0.00000000E+00  0.00000000E+00  0.00000000E+00
  0.00000000E+00  0.00000000E+00  0.00000000E+00
  0.00000000E+00  0.00000000E+00  0.00000000E+00
  0.00000000E+00  0.00000000E+00  0.00000000E+00
  0.00000000E+00  0.00000000E+00  0.00000000E+00
  0.00000000E+00  0.00000000E+00  0.00000000E+00
  0.00000000E+00  0.00000000E+00  0.00000000E+00
  0.00000000E+00  0.00000000E+00  0.00000000E+00
  0.00000000E+00  0.00000000E+00  0.00000000E+00
  0.00000000E+00  0.00000000E+00  0.00000000E+00
  0.00000000E+00  0.00000000E+00  0.00000000E+00
  0.00000000E+00  0.00000000E+00  0.00000000E+00
  0.00000000E+00  0.00000000E+00  0.00000000E+00
  0.00000000E+00  0.00000000E+00  0.00000000E+00
  0.00000000E+00  0.00000000E+00  0.00000000E+00
  0.00000000E+00  0.00000000E+00  0.00000000E+00
  0.00000000E+00  0.00000000E+00  0.00000000E+00
  0.00000000E+00  0.00000000E+00  0.00000000E+00
  0.00000000E+00  0.00000000E+00  0.00000000E+00
  0.00000000E+00  0.00000000E+00  0.00000000E+00
  0.00000000E+00  0.00000000E+00  0.00000000E+00
  0.00000000E+00  0.00000000E+00  0.00000000E+00
  0.00000000E+00  0.00000000E+00  0.00000000E+00
  0.00000000E+00  0.00000000E+00  0.00000000E+00
  0.00000000E+00  0.00000000E+00  0.00000000E+00
  0.00000000E+00  0.00000000E+00  0.00000000E+00
  0.00000000E+00  0.00000000E+00  0.00000000E+00
  0.00000000E+00  0.00000000E+00  0.00000000E+00
  0.00000000E+00  0.00000000E+00  0.00000000E+00
  0.00000000E+00  0.00000000E+00  0.00000000E+00
  0.00000000E+00  0.00000000E+00  0.00000000E+00
  0.00000000E+00  0.00000000E+00  0.00000000E+00
  0.00000000E+00  0.00000000E+00  0.00000000E+00
  0.00000000E+00  0.00000000E+00  0.00000000E+00
  0.00000000E+00  0.00000000E+00  0.00000000E+00
