Primitive Cell                          
   1.00000000000000     
    22.2981611326187092    0.0085017936498800    0.0000000000000000
   -11.1414859628087299   19.2443159525735581    0.0000000000000000
     0.0000000000000000    0.0000000000000000   20.0000000000000000
   N    O    C    H 
    12     6    42    24
Direct
  0.5754559272009772  0.1403365545226265  0.4940493058846158
  0.8627605281042889  0.4265896011207388  0.4934857599203326
  0.5775262982550942  0.4287134798771746  0.4920533583679259
  0.5570507420575410  0.0367336335112114  0.5408817413743705
  0.5257459583636006  0.9668125487226575  0.5414984186661798
  0.4530064164248770  0.8575537769444921  0.5012932877807685
  0.9659750959360238  0.5117842977830804  0.5404120212016181
  0.0356738004897963  0.5503422612406368  0.5411498311821390
  0.1446937392869003  0.5864225243750241  0.5014894125359035
  0.4928767501363112  0.4469814411350086  0.5395251926822269
  0.4537252264635825  0.4774935880145961  0.5402212802349382
  0.4154392521811658  0.5485468238921669  0.4996177232305854
  0.3407389270459475  0.8282939721529559  0.4763984149920759
  0.1733288830536495  0.5025645798567098  0.4780413326384902
  0.4976789292853852  0.6607771546825489  0.4725176674075300
  0.6860261712805951  0.1743740893588566  0.5316295049936031
  0.8292621979607375  0.5039708247870678  0.5303544826439364
  0.5002474647723716  0.3174192521768333  0.5280959575519546
  0.2661610637927438  0.6166183191097332  0.5024159392272836
  0.3137098723894454  0.5927690040173701  0.5016926511101687
  0.3848625487930519  0.6398169920272068  0.5008548611755614
  0.4087118027726433  0.7113900489162504  0.5010700359507680
  0.2904732337786555  0.6879640643157643  0.5025819012422374
  0.1911785056367279  0.5627649725318093  0.4941168656202777
  0.4383846809853722  0.6185896892048959  0.4908549763292243
  0.7416400411485000  0.3847259283434425  0.5170051664171140
  0.6888382230576156  0.4014872922559505  0.5167889167591468
  0.6193189313795031  0.3491801040206823  0.5161176440242841
  0.6025753665486562  0.2794376399644705  0.5170133169034372
  0.7242354263219397  0.3150265754961552  0.5179560870925215
  0.8149244498645913  0.4446667723471691  0.5157566532174513
  0.5595235858227454  0.3625907368552461  0.5141018419078307
  0.4743839146606490  0.9591269847111832  0.4322494441191296
  0.5079390432631428  0.0329463088724893  0.4311525764954780
  0.5467088348174798  0.0681341305676142  0.4897448833075373
  0.5042796664953570  0.0669854100414398  0.3727725674404070
  0.4684975284693991  0.0287007765217311  0.3173632044020280
  0.4361872961181561  0.9555229071118774  0.3181572870490825
  0.4391565786233897  0.9211390520623866  0.3744613588074799
  0.0436198049725718  0.5060588998205446  0.4322792293894295
  0.9699948653617128  0.4660781940145498  0.4308805522084640
  0.9347737477853784  0.4699103369268371  0.4892763197123742
  0.9361918875427975  0.4283750383493512  0.3724215831216782
  0.9745380704280109  0.4305135678471999  0.3172706240516376
  0.0475441266078391  0.4710493608380020  0.3183989557998927
  0.0816909696830663  0.5084492852356206  0.3747522744138863
  0.4948698055700973  0.5270883178409349  0.4298379285537877
  0.5358511524040495  0.4944692201019834  0.4287681686048117
  0.5337313391442535  0.4569268357934959  0.4877805459910789
  0.5728468303639431  0.4977700372129945  0.3700318702013732
  0.5689562874154888  0.5323029323896620  0.3142495269507606
  0.5272865451022355  0.5635792271098055  0.3149947507134172
  0.4906030499276426  0.5609302505325857  0.3716254021809320
  0.3618413018713511  0.7356806186589964  0.5019303687709140
  0.3829855403435758  0.8107504929025069  0.4932351504373642
  0.6546731695851591  0.2620045952349273  0.5173150214132463
  0.6412097373265127  0.1885281910744183  0.5165188160625718
  0.4838737995389550  0.9297387120535134  0.4921752881282870
  0.0727498758734058  0.5451663880210873  0.4921479914506861
  0.4570205928113609  0.5181638076978388  0.4902902648644485
  0.4644755147129018  0.7462064535804487  0.4964016535117395
  0.2558432347312447  0.7092255986969533  0.4991171702770245
  0.2925133320519890  0.5367937172854340  0.4976213185845495
  0.5475256127969033  0.2405902583852608  0.5193047896509384
  0.7630006764116715  0.2988102110599158  0.5210449366396048
  0.7051249530376396  0.4566695857398173  0.5189679342160076
  0.5311469395197932  0.1235783275854061  0.3707436141095428
  0.4660549132224077  0.0551236614673414  0.2723829820814458
  0.4089737584519071  0.9259329485548591  0.2737740283301022
  0.4143697479534936  0.8647970738487629  0.3743700403510957
  0.5471233168278218  0.1596801202149720  0.4733047938352044
  0.8797525506574715  0.3989782729534284  0.3701235946637738
  0.9483314497161857  0.4016432844550337  0.2722261671325157
  0.0771792888408456  0.4731566711902673  0.2742010972497866
  0.1378960496178152  0.5398022288390933  0.3748751661229122
  0.8433062671995515  0.3786843802885542  0.4729785271478306
  0.6031031208189077  0.4715846082787110  0.3681310944982599
  0.5973055011672272  0.5345367854708556  0.2690012178152230
  0.5237560308933737  0.5897045034789485  0.2702849763979884
  0.4584436492678350  0.5849119418467552  0.3715008314101809
  0.6253551858057520  0.4575053643083535  0.4717490620078308
  0.4800493428108510  0.8442496425425787  0.5332254148264610
  0.1579459790293072  0.6271973964861530  0.5329520443742624
  0.3760031817591170  0.5218145403359173  0.5325751739670750
 
  0.00000000E+00  0.00000000E+00  0.00000000E+00
  0.00000000E+00  0.00000000E+00  0.00000000E+00
  0.00000000E+00  0.00000000E+00  0.00000000E+00
  0.00000000E+00  0.00000000E+00  0.00000000E+00
  0.00000000E+00  0.00000000E+00  0.00000000E+00
  0.00000000E+00  0.00000000E+00  0.00000000E+00
  0.00000000E+00  0.00000000E+00  0.00000000E+00
  0.00000000E+00  0.00000000E+00  0.00000000E+00
  0.00000000E+00  0.00000000E+00  0.00000000E+00
  0.00000000E+00  0.00000000E+00  0.00000000E+00
  0.00000000E+00  0.00000000E+00  0.00000000E+00
  0.00000000E+00  0.00000000E+00  0.00000000E+00
  0.00000000E+00  0.00000000E+00  0.00000000E+00
  0.00000000E+00  0.00000000E+00  0.00000000E+00
  0.00000000E+00  0.00000000E+00  0.00000000E+00
  0.00000000E+00  0.00000000E+00  0.00000000E+00
  0.00000000E+00  0.00000000E+00  0.00000000E+00
  0.00000000E+00  0.00000000E+00  0.00000000E+00
  0.00000000E+00  0.00000000E+00  0.00000000E+00
  0.00000000E+00  0.00000000E+00  0.00000000E+00
  0.00000000E+00  0.00000000E+00  0.00000000E+00
  0.00000000E+00  0.00000000E+00  0.00000000E+00
  0.00000000E+00  0.00000000E+00  0.00000000E+00
  0.00000000E+00  0.00000000E+00  0.00000000E+00
  0.00000000E+00  0.00000000E+00  0.00000000E+00
  0.00000000E+00  0.00000000E+00  0.00000000E+00
  0.00000000E+00  0.00000000E+00  0.00000000E+00
  0.00000000E+00  0.00000000E+00  0.00000000E+00
  0.00000000E+00  0.00000000E+00  0.00000000E+00
  0.00000000E+00  0.00000000E+00  0.00000000E+00
  0.00000000E+00  0.00000000E+00  0.00000000E+00
  0.00000000E+00  0.00000000E+00  0.00000000E+00
  0.00000000E+00  0.00000000E+00  0.00000000E+00
  0.00000000E+00  0.00000000E+00  0.00000000E+00
  0.00000000E+00  0.00000000E+00  0.00000000E+00
  0.00000000E+00  0.00000000E+00  0.00000000E+00
  0.00000000E+00  0.00000000E+00  0.00000000E+00
  0.00000000E+00  0.00000000E+00  0.00000000E+00
  0.00000000E+00  0.00000000E+00  0.00000000E+00
  0.00000000E+00  0.00000000E+00  0.00000000E+00
  0.00000000E+00  0.00000000E+00  0.00000000E+00
  0.00000000E+00  0.00000000E+00  0.00000000E+00
  0.00000000E+00  0.00000000E+00  0.00000000E+00
  0.00000000E+00  0.00000000E+00  0.00000000E+00
  0.00000000E+00  0.00000000E+00  0.00000000E+00
  0.00000000E+00  0.00000000E+00  0.00000000E+00
  0.00000000E+00  0.00000000E+00  0.00000000E+00
  0.00000000E+00  0.00000000E+00  0.00000000E+00
  0.00000000E+00  0.00000000E+00  0.00000000E+00
  0.00000000E+00  0.00000000E+00  0.00000000E+00
  0.00000000E+00  0.00000000E+00  0.00000000E+00
  0.00000000E+00  0.00000000E+00  0.00000000E+00
  0.00000000E+00  0.00000000E+00  0.00000000E+00
  0.00000000E+00  0.00000000E+00  0.00000000E+00
  0.00000000E+00  0.00000000E+00  0.00000000E+00
  0.00000000E+00  0.00000000E+00  0.00000000E+00
  0.00000000E+00  0.00000000E+00  0.00000000E+00
  0.00000000E+00  0.00000000E+00  0.00000000E+00
  0.00000000E+00  0.00000000E+00  0.00000000E+00
  0.00000000E+00  0.00000000E+00  0.00000000E+00
  0.00000000E+00  0.00000000E+00  0.00000000E+00
  0.00000000E+00  0.00000000E+00  0.00000000E+00
  0.00000000E+00  0.00000000E+00  0.00000000E+00
  0.00000000E+00  0.00000000E+00  0.00000000E+00
  0.00000000E+00  0.00000000E+00  0.00000000E+00
  0.00000000E+00  0.00000000E+00  0.00000000E+00
  0.00000000E+00  0.00000000E+00  0.00000000E+00
  0.00000000E+00  0.00000000E+00  0.00000000E+00
  0.00000000E+00  0.00000000E+00  0.00000000E+00
  0.00000000E+00  0.00000000E+00  0.00000000E+00
  0.00000000E+00  0.00000000E+00  0.00000000E+00
  0.00000000E+00  0.00000000E+00  0.00000000E+00
  0.00000000E+00  0.00000000E+00  0.00000000E+00
  0.00000000E+00  0.00000000E+00  0.00000000E+00
  0.00000000E+00  0.00000000E+00  0.00000000E+00
  0.00000000E+00  0.00000000E+00  0.00000000E+00
  0.00000000E+00  0.00000000E+00  0.00000000E+00
  0.00000000E+00  0.00000000E+00  0.00000000E+00
  0.00000000E+00  0.00000000E+00  0.00000000E+00
  0.00000000E+00  0.00000000E+00  0.00000000E+00
  0.00000000E+00  0.00000000E+00  0.00000000E+00
  0.00000000E+00  0.00000000E+00  0.00000000E+00
  0.00000000E+00  0.00000000E+00  0.00000000E+00
  0.00000000E+00  0.00000000E+00  0.00000000E+00
