Primitive Cell                          
   1.00000000000000     
    21.9349294358501830    0.0477236033987902    0.0000000000000000
   -10.9262253489606582   18.9968748916454402    0.0000000000000000
     0.0000000000000000    0.0000000000000000   20.0000000000000000
   C    H    O    N 
    33    15     6    15
Direct
  0.6520986543169158  0.3865799937261301  0.5550791897332061
  0.7234199447278797  0.4059093939740492  0.5555252716991816
  0.7438088404343191  0.3548469911834076  0.5553345515485191
  0.6921156222800633  0.2834871892373414  0.5551309514361407
  0.6013066372026401  0.3153830076181094  0.5548962325004467
  0.6367399528106574  0.4461052165118531  0.5487152777860231
  0.8185040354819648  0.3702134906364876  0.5491238330194221
  0.3592274738358654  0.6177510620390336  0.4446631706173392
  0.2876341555106521  0.5971660476670166  0.4447689255185878
  0.2658164090292559  0.6471503643600656  0.4456105779825990
  0.3165736066874913  0.7187333446264290  0.4456873756412136
  0.4089731777039702  0.6892974413761124  0.4446342645648755
  0.3760059623803045  0.5590267135541183  0.4494882648842875
  0.1906018733459263  0.6306588130935253  0.4511774705968890
  0.5412024574505239  0.0687987600922710  0.5237539747052580
  0.5600605010250135  0.0173366674354156  0.5410178847850204
  0.6206920763717676  0.0375302635245802  0.5820258575724608
  0.5368476422661246  0.4661125302536107  0.5231435177655541
  0.4658380509081610  0.4454793679937410  0.5384264904817329
  0.4253572222017397  0.3837928853534152  0.5780584607880783
  0.9379022589641579  0.4703407731560674  0.5249303624486856
  0.9880848538530174  0.5411468501072534  0.5408971855011373
  0.9672206314768701  0.5815183172223897  0.5814901314372420
  0.6209298172098201  0.2634031592582886  0.5547257695037331
  0.5616715871796103  0.1888878536059551  0.5479166930281210
  0.3881179818687244  0.7402803253613115  0.4454368786575245
  0.4465682214221687  0.8154453442722556  0.4506893305229625
  0.4496260037540480  0.9855838971536386  0.4630889065434332
  0.4675851603657790  0.9343446790029333  0.4815863926137141
  0.5447710337520277  0.5585690521898385  0.4637889829406774
  0.4745914291593536  0.5385141955393919  0.4799369376218507
  0.0221683909782158  0.4624735085553482  0.4650452427797660
  0.0720934894415493  0.5323809522266032  0.4819002300107798
  0.7112887553998917  0.2461122226711936  0.5527555393191221
  0.5449437177085414  0.2962844321221283  0.5524051718188261
  0.7605621908078533  0.4622851457768462  0.5534911472821804
  0.2961026720340243  0.7550656092169135  0.4474527669654620
  0.4656089546630611  0.7096267221381609  0.4455140591811002
  0.2515382439557214  0.5405144865016496  0.4456475984175725
  0.6302667577533327  0.1506472461209185  0.5634249567735736
  0.5303088729412195  0.3766144997831589  0.5613054990381414
  0.8551324646705964  0.4765838041809971  0.5640853039905593
  0.4051037775592690  0.9724629913316605  0.4298645890122899
  0.3736571907836890  0.8490314118595492  0.4536713888779644
  0.5765600362409202  0.6044139366345007  0.4321751203875905
  0.4819584345458310  0.6318860372115580  0.4513421567994840
  0.0362219689301000  0.4308116341071866  0.4330007109552767
  0.1578871708110086  0.5245877003819999  0.4534987011470548
  0.5004478945949842  0.1750815233824881  0.5432555651654809
  0.6838280993133665  0.5074936992150825  0.5455618083586558
  0.8329778824654852  0.3230918788060109  0.5448732449899580
  0.5085234088279762  0.8310191463434506  0.4475097167504885
  0.3297746613134152  0.4970923465778583  0.4469218884481663
  0.1748068508732175  0.6770531537683908  0.4486390346974432
  0.5230009222204970  0.9505616143395557  0.5202831527296397
  0.6710777345162882  0.0605843507954305  0.6154024975535251
  0.5819837845307276  0.1377407601461300  0.5453325460407541
  0.4353973806696985  0.4818613112020671  0.5171266991851624
  0.3978449607252514  0.3327244721002742  0.6105238837869180
  0.5654913515982969  0.4255722851812038  0.5446917828075186
  0.0546272053422001  0.5714989500405707  0.5194813792337669
  0.9443589872005163  0.6091774769274494  0.6149146136680201
  0.8689555897015424  0.4415843340880983  0.5465365197496865
  0.4858386562798955  0.0516367730106566  0.4840399465462113
  0.4250787261159488  0.8645835505421360  0.4610716788513258
  0.5752215590045893  0.5229091179344039  0.4852308546312472
  0.4465718291939709  0.5804002067918219  0.4589092575664679
  0.9562625612153113  0.4321820435638557  0.4863245401963923
  0.1418185900952054  0.5601676732966396  0.4611460996805050
 
  0.00000000E+00  0.00000000E+00  0.00000000E+00
  0.00000000E+00  0.00000000E+00  0.00000000E+00
  0.00000000E+00  0.00000000E+00  0.00000000E+00
  0.00000000E+00  0.00000000E+00  0.00000000E+00
  0.00000000E+00  0.00000000E+00  0.00000000E+00
  0.00000000E+00  0.00000000E+00  0.00000000E+00
  0.00000000E+00  0.00000000E+00  0.00000000E+00
  0.00000000E+00  0.00000000E+00  0.00000000E+00
  0.00000000E+00  0.00000000E+00  0.00000000E+00
  0.00000000E+00  0.00000000E+00  0.00000000E+00
  0.00000000E+00  0.00000000E+00  0.00000000E+00
  0.00000000E+00  0.00000000E+00  0.00000000E+00
  0.00000000E+00  0.00000000E+00  0.00000000E+00
  0.00000000E+00  0.00000000E+00  0.00000000E+00
  0.00000000E+00  0.00000000E+00  0.00000000E+00
  0.00000000E+00  0.00000000E+00  0.00000000E+00
  0.00000000E+00  0.00000000E+00  0.00000000E+00
  0.00000000E+00  0.00000000E+00  0.00000000E+00
  0.00000000E+00  0.00000000E+00  0.00000000E+00
  0.00000000E+00  0.00000000E+00  0.00000000E+00
  0.00000000E+00  0.00000000E+00  0.00000000E+00
  0.00000000E+00  0.00000000E+00  0.00000000E+00
  0.00000000E+00  0.00000000E+00  0.00000000E+00
  0.00000000E+00  0.00000000E+00  0.00000000E+00
  0.00000000E+00  0.00000000E+00  0.00000000E+00
  0.00000000E+00  0.00000000E+00  0.00000000E+00
  0.00000000E+00  0.00000000E+00  0.00000000E+00
  0.00000000E+00  0.00000000E+00  0.00000000E+00
  0.00000000E+00  0.00000000E+00  0.00000000E+00
  0.00000000E+00  0.00000000E+00  0.00000000E+00
  0.00000000E+00  0.00000000E+00  0.00000000E+00
  0.00000000E+00  0.00000000E+00  0.00000000E+00
  0.00000000E+00  0.00000000E+00  0.00000000E+00
  0.00000000E+00  0.00000000E+00  0.00000000E+00
  0.00000000E+00  0.00000000E+00  0.00000000E+00
  0.00000000E+00  0.00000000E+00  0.00000000E+00
  0.00000000E+00  0.00000000E+00  0.00000000E+00
  0.00000000E+00  0.00000000E+00  0.00000000E+00
  0.00000000E+00  0.00000000E+00  0.00000000E+00
  0.00000000E+00  0.00000000E+00  0.00000000E+00
  0.00000000E+00  0.00000000E+00  0.00000000E+00
  0.00000000E+00  0.00000000E+00  0.00000000E+00
  0.00000000E+00  0.00000000E+00  0.00000000E+00
  0.00000000E+00  0.00000000E+00  0.00000000E+00
  0.00000000E+00  0.00000000E+00  0.00000000E+00
  0.00000000E+00  0.00000000E+00  0.00000000E+00
  0.00000000E+00  0.00000000E+00  0.00000000E+00
  0.00000000E+00  0.00000000E+00  0.00000000E+00
  0.00000000E+00  0.00000000E+00  0.00000000E+00
  0.00000000E+00  0.00000000E+00  0.00000000E+00
  0.00000000E+00  0.00000000E+00  0.00000000E+00
  0.00000000E+00  0.00000000E+00  0.00000000E+00
  0.00000000E+00  0.00000000E+00  0.00000000E+00
  0.00000000E+00  0.00000000E+00  0.00000000E+00
  0.00000000E+00  0.00000000E+00  0.00000000E+00
  0.00000000E+00  0.00000000E+00  0.00000000E+00
  0.00000000E+00  0.00000000E+00  0.00000000E+00
  0.00000000E+00  0.00000000E+00  0.00000000E+00
  0.00000000E+00  0.00000000E+00  0.00000000E+00
  0.00000000E+00  0.00000000E+00  0.00000000E+00
  0.00000000E+00  0.00000000E+00  0.00000000E+00
  0.00000000E+00  0.00000000E+00  0.00000000E+00
  0.00000000E+00  0.00000000E+00  0.00000000E+00
  0.00000000E+00  0.00000000E+00  0.00000000E+00
  0.00000000E+00  0.00000000E+00  0.00000000E+00
  0.00000000E+00  0.00000000E+00  0.00000000E+00
  0.00000000E+00  0.00000000E+00  0.00000000E+00
  0.00000000E+00  0.00000000E+00  0.00000000E+00
  0.00000000E+00  0.00000000E+00  0.00000000E+00
