Primitive Cell                          
   1.00000000000000     
    21.9081710349495573   -0.0308487034243367    0.0000000000000000
   -10.9807857390959267   19.0766775768183585    0.0000000000000000
     0.0000000000000000    0.0000000000000000   20.0000000000000000
   N    C    O    H 
    15    30    12    15
Direct
  0.5102130996586212  0.9485927484145051  0.5256483107344891
  0.6099356568493732  0.0303029177390783  0.5868526067288542
  0.5681987746195389  0.1350683660636278  0.5474386633417012
  0.4294742861567613  0.4836365548928541  0.5250598168662606
  0.4102406192617210  0.3848956394216643  0.5882001866203765
  0.5566060294293464  0.4234301658934783  0.5494356380049652
  0.0457360007392751  0.5629452606983705  0.5251017434359113
  0.9653598938200147  0.5805091966161626  0.5892394774431722
  0.8581124663546689  0.4354190139202672  0.5480562657444423
  0.4712896354498071  0.0465320540688694  0.4896902250012687
  0.4123321751047087  0.8604351941769508  0.4676319098252009
  0.5661062553568428  0.5194128796557393  0.4896736024258175
  0.4407937950557752  0.5813568167794969  0.4660906951472512
  0.9452761968867947  0.4279439024137304  0.4866393567922245
  0.1328684103326552  0.5534395635592801  0.4649334534537601
  0.3519196172747669  0.6162267356136653  0.4498032490966892
  0.2797729702552232  0.5939617054561737  0.4491390982081569
  0.2565385126800095  0.6425581949773118  0.4496675846261056
  0.3062890036084269  0.7143622601717823  0.4501110564748103
  0.4007653248653540  0.6879872595448120  0.4503609139930944
  0.3701040080966749  0.5588568167831909  0.4546048243110690
  0.1806624222709772  0.6241146001356057  0.4546427097670005
  0.6424345431127776  0.3836531123890552  0.5540903058113926
  0.7135962105916391  0.4017158343221325  0.5538587012460710
  0.7323365251383365  0.3497090205091951  0.5528311716768783
  0.6792931522456982  0.2788617406314629  0.5523598097077596
  0.5901425709666341  0.3129895257838484  0.5535220458486165
  0.6281899738807155  0.4435760289757624  0.5493145989293708
  0.8068175401995319  0.3641455483883931  0.5465807342329683
  0.5286407835638300  0.0660674087777764  0.5281832724893860
  0.5472883922223986  0.0145822852788697  0.5449060064697306
  0.5276731139981621  0.4632209546793433  0.5290013711683557
  0.4576318795458008  0.4460884466970398  0.5452812621607563
  0.9270534213636381  0.4649918396663253  0.5274414629994624
  0.9797445466821415  0.5343344231166682  0.5451611293374299
  0.3783649920989518  0.7375228642544585  0.4507936675836959
  0.4356653662330530  0.8130479370598991  0.4565685583369969
  0.6082666500809566  0.2602138389047823  0.5526408698942618
  0.5479787636513080  0.1861559796010468  0.5465785174169255
  0.4348299911914992  0.9806417936713032  0.4696082084700350
  0.4538940790233852  0.9302512601068571  0.4877539214442947
  0.5374322056408758  0.5563823578802882  0.4686434456357134
  0.4681845818425927  0.5390434305644050  0.4866638255678168
  0.0111487723274379  0.4571557000076822  0.4656281455315323
  0.0628469063497974  0.5254991593240916  0.4853252759082096
  0.4982665398899968  0.8305218418216427  0.4532656356481866
  0.3248164303951455  0.4966893931536305  0.4503158442392206
  0.1632181722172561  0.6690544181945270  0.4515316486112795
  0.4868778138698815  0.1728871510685366  0.5406180883907936
  0.6758957562362014  0.5045779840616476  0.5446301120981047
  0.8204296057450335  0.3168722059490463  0.5397981838560497
  0.6528289475638971  0.0938580257745087  0.5988876299949624
  0.6161952546276765  0.9812211373232742  0.6073442337421113
  0.4291393344595420  0.3404882258697626  0.5993757633812322
  0.3563717121239094  0.3813781285221509  0.6103005918118498
  0.9017489209938390  0.5612004757692901  0.6005341399867490
  0.0154570066064110  0.6339153047370516  0.6119829969184281
  0.2845632231792834  0.7494703813508607  0.4513079496530850
  0.4577419957431488  0.7095076641553746  0.4518735953356483
  0.2444362305696899  0.5372205098098277  0.4496265770752004
  0.6968749099111236  0.2404718796657477  0.5494094578482915
  0.5339476599815356  0.2954623768559159  0.5514038196588515
  0.7521520317252950  0.4576669373150679  0.5520822889969921
  0.6153686152832449  0.1460029329776731  0.5683848654630381
  0.5199338270664171  0.3763888604204340  0.5697676902519433
  0.8473920362893850  0.4712727949389901  0.5697036219788387
  0.3892663628867012  0.9667446798217725  0.4373936432446257
  0.3604347065553952  0.8435648502621618  0.4605183283720038
  0.5695384336084430  0.6009062141189006  0.4357159522578868
  0.4762468118456908  0.6330167939274887  0.4598139802856380
  0.0239379101160679  0.4262680709067226  0.4314131108281742
  0.1495466344312675  0.5184804236407032  0.4575614757605422
 
  0.00000000E+00  0.00000000E+00  0.00000000E+00
  0.00000000E+00  0.00000000E+00  0.00000000E+00
  0.00000000E+00  0.00000000E+00  0.00000000E+00
  0.00000000E+00  0.00000000E+00  0.00000000E+00
  0.00000000E+00  0.00000000E+00  0.00000000E+00
  0.00000000E+00  0.00000000E+00  0.00000000E+00
  0.00000000E+00  0.00000000E+00  0.00000000E+00
  0.00000000E+00  0.00000000E+00  0.00000000E+00
  0.00000000E+00  0.00000000E+00  0.00000000E+00
  0.00000000E+00  0.00000000E+00  0.00000000E+00
  0.00000000E+00  0.00000000E+00  0.00000000E+00
  0.00000000E+00  0.00000000E+00  0.00000000E+00
  0.00000000E+00  0.00000000E+00  0.00000000E+00
  0.00000000E+00  0.00000000E+00  0.00000000E+00
  0.00000000E+00  0.00000000E+00  0.00000000E+00
  0.00000000E+00  0.00000000E+00  0.00000000E+00
  0.00000000E+00  0.00000000E+00  0.00000000E+00
  0.00000000E+00  0.00000000E+00  0.00000000E+00
  0.00000000E+00  0.00000000E+00  0.00000000E+00
  0.00000000E+00  0.00000000E+00  0.00000000E+00
  0.00000000E+00  0.00000000E+00  0.00000000E+00
  0.00000000E+00  0.00000000E+00  0.00000000E+00
  0.00000000E+00  0.00000000E+00  0.00000000E+00
  0.00000000E+00  0.00000000E+00  0.00000000E+00
  0.00000000E+00  0.00000000E+00  0.00000000E+00
  0.00000000E+00  0.00000000E+00  0.00000000E+00
  0.00000000E+00  0.00000000E+00  0.00000000E+00
  0.00000000E+00  0.00000000E+00  0.00000000E+00
  0.00000000E+00  0.00000000E+00  0.00000000E+00
  0.00000000E+00  0.00000000E+00  0.00000000E+00
  0.00000000E+00  0.00000000E+00  0.00000000E+00
  0.00000000E+00  0.00000000E+00  0.00000000E+00
  0.00000000E+00  0.00000000E+00  0.00000000E+00
  0.00000000E+00  0.00000000E+00  0.00000000E+00
  0.00000000E+00  0.00000000E+00  0.00000000E+00
  0.00000000E+00  0.00000000E+00  0.00000000E+00
  0.00000000E+00  0.00000000E+00  0.00000000E+00
  0.00000000E+00  0.00000000E+00  0.00000000E+00
  0.00000000E+00  0.00000000E+00  0.00000000E+00
  0.00000000E+00  0.00000000E+00  0.00000000E+00
  0.00000000E+00  0.00000000E+00  0.00000000E+00
  0.00000000E+00  0.00000000E+00  0.00000000E+00
  0.00000000E+00  0.00000000E+00  0.00000000E+00
  0.00000000E+00  0.00000000E+00  0.00000000E+00
  0.00000000E+00  0.00000000E+00  0.00000000E+00
  0.00000000E+00  0.00000000E+00  0.00000000E+00
  0.00000000E+00  0.00000000E+00  0.00000000E+00
  0.00000000E+00  0.00000000E+00  0.00000000E+00
  0.00000000E+00  0.00000000E+00  0.00000000E+00
  0.00000000E+00  0.00000000E+00  0.00000000E+00
  0.00000000E+00  0.00000000E+00  0.00000000E+00
  0.00000000E+00  0.00000000E+00  0.00000000E+00
  0.00000000E+00  0.00000000E+00  0.00000000E+00
  0.00000000E+00  0.00000000E+00  0.00000000E+00
  0.00000000E+00  0.00000000E+00  0.00000000E+00
  0.00000000E+00  0.00000000E+00  0.00000000E+00
  0.00000000E+00  0.00000000E+00  0.00000000E+00
  0.00000000E+00  0.00000000E+00  0.00000000E+00
  0.00000000E+00  0.00000000E+00  0.00000000E+00
  0.00000000E+00  0.00000000E+00  0.00000000E+00
  0.00000000E+00  0.00000000E+00  0.00000000E+00
  0.00000000E+00  0.00000000E+00  0.00000000E+00
  0.00000000E+00  0.00000000E+00  0.00000000E+00
  0.00000000E+00  0.00000000E+00  0.00000000E+00
  0.00000000E+00  0.00000000E+00  0.00000000E+00
  0.00000000E+00  0.00000000E+00  0.00000000E+00
  0.00000000E+00  0.00000000E+00  0.00000000E+00
  0.00000000E+00  0.00000000E+00  0.00000000E+00
  0.00000000E+00  0.00000000E+00  0.00000000E+00
  0.00000000E+00  0.00000000E+00  0.00000000E+00
  0.00000000E+00  0.00000000E+00  0.00000000E+00
  0.00000000E+00  0.00000000E+00  0.00000000E+00
