Primitive Cell                          
   1.00000000000000     
    14.3240766169341658   -0.0078122587861459    0.0000000000000000
     7.1552726935915265   12.4089203655890596    0.0000000000000000
     0.0000000000000000    0.0000000000000000   20.0000000000000000
   C    H    N 
    21     3    15
Direct
  0.2566439998533028  0.4138027221705514  0.5137642175666173
  0.4138027221705514  0.2566439998533028  0.5137642175666173
  0.4138913249318819  0.4138913249318819  0.5135824122784456
  0.7995542474758679  0.6426849629873885  0.5151306873330057
  0.6426849629873885  0.7995542474758679  0.5151306873330057
  0.6425991692150106  0.6425991692150106  0.5153900490577286
  0.5821759863764839  0.5821759863764839  0.5148045676599153
  0.4743106390194782  0.4743106390194782  0.5141004421973108
  0.5520435335079341  0.5520435335079341  0.5746777807421637
  0.5787947723169751  0.5787947723169751  0.6382409433814686
  0.9203048989659450  0.5822486980243369  0.5146961158835381
  0.1359229337655918  0.4741429426092338  0.5142307260490924
  0.9803589884209529  0.5517743178299170  0.5746268977246558
  0.9269355700176902  0.5782943398796760  0.6381916300534911
  0.5822486980243369  0.9203048989659450  0.5146961158835381
  0.4741429426092338  0.1359229337655918  0.5142307260490924
  0.5517743178299170  0.9803589884209529  0.5746268977246558
  0.5782943398796760  0.9269355700176902  0.6381916300534911
  0.5042023198286216  0.5042023198286216  0.4545523001946421
  0.0763585865056271  0.5042871076044406  0.4546305712773204
  0.5042871076044406  0.0763585865056271  0.4546305712773204
  0.4844742481933082  0.4844742481933082  0.4057137491044926
  0.1158282230904533  0.4846488050863158  0.4058066381376264
  0.4846488050863158  0.1158282230904533  0.4058066381376264
  0.3058740676306613  0.3058740676306613  0.5135885791438071
  0.4725099627385774  0.3059700737343363  0.5132924411210524
  0.3059700737343363  0.4725099627385774  0.5132924411210524
  0.7505182027769877  0.7505182027769877  0.5149386842967942
  0.5838793789045766  0.7504256386663215  0.5155629564457698
  0.7504256386663215  0.5838793789045766  0.5155629564457698
  0.4978280229635743  0.4978280229635743  0.5741203240914459
  0.6025323577958659  0.6025323577958659  0.6886604454756480
  0.0886880452153918  0.4974764199759392  0.5741816512405009
  0.8797820631644271  0.6018129062035129  0.6887077775624775
  0.4974764199759392  0.0886880452153918  0.5741816512405009
  0.6018129062035129  0.8797820631644271  0.6887077775624775
  0.5581153927963882  0.5581153927963882  0.4550324436121684
  0.9686561247904493  0.5583412549660096  0.4550114120568480
  0.5583412549660096  0.9686561247904493  0.4550114120568480
 
  0.00000000E+00  0.00000000E+00  0.00000000E+00
  0.00000000E+00  0.00000000E+00  0.00000000E+00
  0.00000000E+00  0.00000000E+00  0.00000000E+00
  0.00000000E+00  0.00000000E+00  0.00000000E+00
  0.00000000E+00  0.00000000E+00  0.00000000E+00
  0.00000000E+00  0.00000000E+00  0.00000000E+00
  0.00000000E+00  0.00000000E+00  0.00000000E+00
  0.00000000E+00  0.00000000E+00  0.00000000E+00
  0.00000000E+00  0.00000000E+00  0.00000000E+00
  0.00000000E+00  0.00000000E+00  0.00000000E+00
  0.00000000E+00  0.00000000E+00  0.00000000E+00
  0.00000000E+00  0.00000000E+00  0.00000000E+00
  0.00000000E+00  0.00000000E+00  0.00000000E+00
  0.00000000E+00  0.00000000E+00  0.00000000E+00
  0.00000000E+00  0.00000000E+00  0.00000000E+00
  0.00000000E+00  0.00000000E+00  0.00000000E+00
  0.00000000E+00  0.00000000E+00  0.00000000E+00
  0.00000000E+00  0.00000000E+00  0.00000000E+00
  0.00000000E+00  0.00000000E+00  0.00000000E+00
  0.00000000E+00  0.00000000E+00  0.00000000E+00
  0.00000000E+00  0.00000000E+00  0.00000000E+00
  0.00000000E+00  0.00000000E+00  0.00000000E+00
  0.00000000E+00  0.00000000E+00  0.00000000E+00
  0.00000000E+00  0.00000000E+00  0.00000000E+00
  0.00000000E+00  0.00000000E+00  0.00000000E+00
  0.00000000E+00  0.00000000E+00  0.00000000E+00
  0.00000000E+00  0.00000000E+00  0.00000000E+00
  0.00000000E+00  0.00000000E+00  0.00000000E+00
  0.00000000E+00  0.00000000E+00  0.00000000E+00
  0.00000000E+00  0.00000000E+00  0.00000000E+00
  0.00000000E+00  0.00000000E+00  0.00000000E+00
  0.00000000E+00  0.00000000E+00  0.00000000E+00
  0.00000000E+00  0.00000000E+00  0.00000000E+00
  0.00000000E+00  0.00000000E+00  0.00000000E+00
  0.00000000E+00  0.00000000E+00  0.00000000E+00
  0.00000000E+00  0.00000000E+00  0.00000000E+00
  0.00000000E+00  0.00000000E+00  0.00000000E+00
  0.00000000E+00  0.00000000E+00  0.00000000E+00
  0.00000000E+00  0.00000000E+00  0.00000000E+00
