Primitive Cell                          
   1.00000000000000     
    31.9905887882348701   -0.0020439345676126    0.0000000000000000
   -15.9969704589657020   27.6434708338813699    0.0000000000000000
     0.0000000000000000    0.0000000000000000   20.0000000000000000
   N    C    H    O 
     8    72    36     6
Direct
  0.4592768801773701  0.5326174346459212  0.5297163731334109
  0.3174200003507011  0.6746339816795981  0.4879996503369242
  0.4631075194385730  0.9587400330740223  0.5291399960294854
  0.0337615824149609  0.5363911697375983  0.5299209227383486
  0.6510442913057659  0.3420495833606836  0.4878175007076138
  0.5082643019401019  0.0577418343552552  0.5294254909006000
  0.9347361228648623  0.4825949500158160  0.5304125192981743
  0.5128638335412887  0.4873670111447268  0.5288510744540744
  0.3437776768927137  0.6498797991903231  0.4853403365807409
  0.3307860874651496  0.6095142827506876  0.5264496124052016
  0.3562153990499937  0.5847708945406467  0.5230163793929634
  0.3949424936085038  0.5991826048834668  0.4781525340341020
  0.4077506122524071  0.6397693687015291  0.4374493960014334
  0.3828360982502232  0.6649889960717488  0.4410623832719196
  0.4708740838675212  0.5217094609587321  0.4700968032444379
  0.4211848620442282  0.5723474071403842  0.4731386639250701
  0.4335489289680368  0.5609738720007726  0.4115222969698209
  0.4580051345022937  0.5349622982220623  0.4092508864159399
  0.4686950410825048  0.5211802792699203  0.3433310173515807
  0.4350984066454231  0.5565211827744534  0.5305735296421616
  0.3423777851021654  0.7257704467520298  0.4848987141944932
  0.2664071500924621  0.6482253327608234  0.4852879011660676
  0.3264442279751805  0.7499871108815270  0.4423725085021601
  0.3519239633468061  0.8001921798658174  0.4384828615663920
  0.3936787934798005  0.8278530415667760  0.4771075828277418
  0.4090271954736835  0.8032915770346563  0.5200623741503136
  0.3840062806442290  0.7530555968732884  0.5238068104481641
  0.2390811412925018  0.6631605317312079  0.5229559162547588
  0.1889346108314243  0.6376551224451674  0.5193828380312837
  0.1644297412285738  0.5967659477918303  0.4779530588360998
  0.1921165690993547  0.5819889673002479  0.4407692369044938
  0.2422492413075688  0.6070424713548164  0.4444134020224553
  0.4206759321262723  0.8810105684731511  0.4722156811862988
  0.4300556553312660  0.9050562051585800  0.4109218350226556
  0.4563282430995699  0.9556156383453143  0.4089401387545237
  0.1113520604690521  0.5703021928617744  0.4731613162667898
  0.0872788256233434  0.5537799923089466  0.4121760859890031
  0.0368031624286473  0.5293377606994625  0.4102109655960859
  0.4388059572792216  0.9105826953669762  0.5296578189795014
  0.0818452642294361  0.5603984815266614  0.5303424630985489
  0.4719548330963406  0.9815317751161530  0.4698408472030664
  0.4679013714928004  0.9804566326289077  0.3432197515366227
  0.0109566553628966  0.5207977897118710  0.4708761132427668
  0.0119809349842228  0.5139036029136221  0.3446661001432147
  0.6264327331224422  0.2908844290367867  0.4850544959152572
  0.7021604402761312  0.3683145898558848  0.4851306770615196
  0.6248300177223740  0.3668186906278521  0.4845870274996358
  0.5837791991293741  0.3497862181911913  0.4435719015858197
  0.5588889408298456  0.3750149870199522  0.4395954314110995
  0.5736876714283312  0.4176195953392039  0.4766198698480864
  0.6144793959226433  0.4340591725285776  0.5181056502610275
  0.6398543203275366  0.4093011865651874  0.5219504545103106
  0.6425448273420642  0.2669528421060718  0.4423050682996745
  0.6175156473842094  0.2167285229059530  0.4385836809492858
  0.5760970225487014  0.1888006952210262  0.4776819327194346
  0.5606723600521093  0.2130906974025280  0.5210375384885140
  0.5852109636041902  0.2633319914954484  0.5245642130162551
  0.7264308537078961  0.4074349914266620  0.4408953051586835
  0.7765763942860602  0.4320887722844731  0.4373025438978360
  0.8040273340834432  0.4189505374332612  0.4780095602477061
  0.7793900226053978  0.3801288540871326  0.5227422276650913
  0.7292194453198206  0.3549531592029354  0.5261270074381201
  0.5494041858437200  0.1356206752147244  0.4726871957226493
  0.4985605158013158  0.0350992575258005  0.4699536375785485
  0.5131463954441600  0.0611536490641953  0.4090642874095352
  0.5392661047120271  0.1117178300607975  0.4112002430302510
  0.5005986168458350  0.0364456874334920  0.3432412788042427
  0.8571184850542295  0.4449206876003942  0.4732686127218884
  0.9574677196292782  0.4939363452114947  0.4709486408137735
  0.9315466600223203  0.4810884290465438  0.4099290991619995
  0.8810800909737253  0.4569749206735452  0.4118196844283375
  0.9562520378662427  0.4916141268636736  0.3442183160339383
  0.5473313679163994  0.4443291989730369  0.4717687837018332
  0.4978379519214968  0.4951988595248338  0.4697584466333566
  0.5070785793602042  0.4786810897536498  0.4088778573509657
  0.5314537791488263  0.4525656842157773  0.4107188633676202
  0.4927048188238032  0.4892004423770970  0.3432610944092005
  0.5322836957246295  0.1059135931436117  0.5301198499474324
  0.8866462314291041  0.4587588472348969  0.5309230987617823
  0.5369006382529520  0.4633295898192173  0.5291487869448730
  0.3004414133287625  0.5976318432511150  0.5608010819890907
  0.3453457354835123  0.5532024830835311  0.5548351710063386
  0.3932251223632477  0.6964091418530955  0.4092200747641854
  0.4379158666279679  0.6518403782031967  0.4026722598661792
  0.4234976137527866  0.5708372411413336  0.3644142211397039
  0.4265379436678174  0.5646863109286357  0.5801913168170785
  0.3391090337743705  0.8184351116473820  0.4051496516787267
  0.2941300691368340  0.7291143772873667  0.4121334209404068
  0.3966551024222795  0.7344847355307351  0.5567233402191363
  0.4415423176152160  0.8238544265165686  0.5501590703675703
  0.2575469833117197  0.6950797302481959  0.5547410448299743
  0.1683956222591902  0.6501413691456719  0.5484299572838793
  0.1739858671836245  0.5501191250422011  0.4087512795754975
  0.2631058179903363  0.5950448387502618  0.4152503266731813
  0.4184145385670561  0.8853249345578220  0.3637340886186777
  0.1069250242623383  0.5604956696557579  0.3651262194330727
  0.4322683481708651  0.8936542303694850  0.5790753334709535
  0.0987996403364590  0.5722778673566182  0.5795143638266751
  0.6304147649078189  0.1987099224629389  0.4049774673564883
  0.6746090671503282  0.2880714840218488  0.4116989282001882
  0.5725027341494098  0.2817238329847029  0.5577205560710752
  0.5284536969190796  0.1922908122415024  0.5515883804431851
  0.5717332892827613  0.3167828166492654  0.4145991476070563
  0.5271175865935902  0.3612753295527042  0.4074848320809963
  0.7056400493042503  0.4180654549465075  0.4090747205454122
  0.7949148880092380  0.4622905524096339  0.4025400968679520
  0.7998403387043425  0.3689762231781017  0.5544704192876395
  0.7105023200523917  0.3245104343369931  0.5603565443010652
  0.6717127737642912  0.4227938833762721  0.5537640832481330
  0.6269777911834069  0.4672239592630660  0.5469851201742983
  0.5501657286014208  0.1315913069994323  0.3640514972699052
  0.8613369585703481  0.4469461063109748  0.3645758335839773
  0.5386343387910060  0.4401284056357966  0.3635630202173132
  0.5394353595953305  0.1227520611797743  0.5796474220355776
  0.8697183640780608  0.4504199641376161  0.5804112392913936
  0.5482911670001798  0.4577133499884880  0.5783647867620658
  0.4590673181126022  0.5334870563384726  0.2901187680771571
  0.4533032759234601  0.9588482886866245  0.2900397162111901
  0.0334299661420729  0.5183533890343526  0.2919932861946108
  0.5144594320024893  0.0581565482061563  0.2900164820989204
  0.9346981858472958  0.4832332956338732  0.2908121339680108
  0.4993451285381241  0.4742837554010038  0.2901255684530142
 
  0.00000000E+00  0.00000000E+00  0.00000000E+00
  0.00000000E+00  0.00000000E+00  0.00000000E+00
  0.00000000E+00  0.00000000E+00  0.00000000E+00
  0.00000000E+00  0.00000000E+00  0.00000000E+00
  0.00000000E+00  0.00000000E+00  0.00000000E+00
  0.00000000E+00  0.00000000E+00  0.00000000E+00
  0.00000000E+00  0.00000000E+00  0.00000000E+00
  0.00000000E+00  0.00000000E+00  0.00000000E+00
  0.00000000E+00  0.00000000E+00  0.00000000E+00
  0.00000000E+00  0.00000000E+00  0.00000000E+00
  0.00000000E+00  0.00000000E+00  0.00000000E+00
  0.00000000E+00  0.00000000E+00  0.00000000E+00
  0.00000000E+00  0.00000000E+00  0.00000000E+00
  0.00000000E+00  0.00000000E+00  0.00000000E+00
  0.00000000E+00  0.00000000E+00  0.00000000E+00
  0.00000000E+00  0.00000000E+00  0.00000000E+00
  0.00000000E+00  0.00000000E+00  0.00000000E+00
  0.00000000E+00  0.00000000E+00  0.00000000E+00
  0.00000000E+00  0.00000000E+00  0.00000000E+00
  0.00000000E+00  0.00000000E+00  0.00000000E+00
  0.00000000E+00  0.00000000E+00  0.00000000E+00
  0.00000000E+00  0.00000000E+00  0.00000000E+00
  0.00000000E+00  0.00000000E+00  0.00000000E+00
  0.00000000E+00  0.00000000E+00  0.00000000E+00
  0.00000000E+00  0.00000000E+00  0.00000000E+00
  0.00000000E+00  0.00000000E+00  0.00000000E+00
  0.00000000E+00  0.00000000E+00  0.00000000E+00
  0.00000000E+00  0.00000000E+00  0.00000000E+00
  0.00000000E+00  0.00000000E+00  0.00000000E+00
  0.00000000E+00  0.00000000E+00  0.00000000E+00
  0.00000000E+00  0.00000000E+00  0.00000000E+00
  0.00000000E+00  0.00000000E+00  0.00000000E+00
  0.00000000E+00  0.00000000E+00  0.00000000E+00
  0.00000000E+00  0.00000000E+00  0.00000000E+00
  0.00000000E+00  0.00000000E+00  0.00000000E+00
  0.00000000E+00  0.00000000E+00  0.00000000E+00
  0.00000000E+00  0.00000000E+00  0.00000000E+00
  0.00000000E+00  0.00000000E+00  0.00000000E+00
  0.00000000E+00  0.00000000E+00  0.00000000E+00
  0.00000000E+00  0.00000000E+00  0.00000000E+00
  0.00000000E+00  0.00000000E+00  0.00000000E+00
  0.00000000E+00  0.00000000E+00  0.00000000E+00
  0.00000000E+00  0.00000000E+00  0.00000000E+00
  0.00000000E+00  0.00000000E+00  0.00000000E+00
  0.00000000E+00  0.00000000E+00  0.00000000E+00
  0.00000000E+00  0.00000000E+00  0.00000000E+00
  0.00000000E+00  0.00000000E+00  0.00000000E+00
  0.00000000E+00  0.00000000E+00  0.00000000E+00
  0.00000000E+00  0.00000000E+00  0.00000000E+00
  0.00000000E+00  0.00000000E+00  0.00000000E+00
  0.00000000E+00  0.00000000E+00  0.00000000E+00
  0.00000000E+00  0.00000000E+00  0.00000000E+00
  0.00000000E+00  0.00000000E+00  0.00000000E+00
  0.00000000E+00  0.00000000E+00  0.00000000E+00
  0.00000000E+00  0.00000000E+00  0.00000000E+00
  0.00000000E+00  0.00000000E+00  0.00000000E+00
  0.00000000E+00  0.00000000E+00  0.00000000E+00
  0.00000000E+00  0.00000000E+00  0.00000000E+00
  0.00000000E+00  0.00000000E+00  0.00000000E+00
  0.00000000E+00  0.00000000E+00  0.00000000E+00
  0.00000000E+00  0.00000000E+00  0.00000000E+00
  0.00000000E+00  0.00000000E+00  0.00000000E+00
  0.00000000E+00  0.00000000E+00  0.00000000E+00
  0.00000000E+00  0.00000000E+00  0.00000000E+00
  0.00000000E+00  0.00000000E+00  0.00000000E+00
  0.00000000E+00  0.00000000E+00  0.00000000E+00
  0.00000000E+00  0.00000000E+00  0.00000000E+00
  0.00000000E+00  0.00000000E+00  0.00000000E+00
  0.00000000E+00  0.00000000E+00  0.00000000E+00
  0.00000000E+00  0.00000000E+00  0.00000000E+00
  0.00000000E+00  0.00000000E+00  0.00000000E+00
  0.00000000E+00  0.00000000E+00  0.00000000E+00
  0.00000000E+00  0.00000000E+00  0.00000000E+00
  0.00000000E+00  0.00000000E+00  0.00000000E+00
  0.00000000E+00  0.00000000E+00  0.00000000E+00
  0.00000000E+00  0.00000000E+00  0.00000000E+00
  0.00000000E+00  0.00000000E+00  0.00000000E+00
  0.00000000E+00  0.00000000E+00  0.00000000E+00
  0.00000000E+00  0.00000000E+00  0.00000000E+00
  0.00000000E+00  0.00000000E+00  0.00000000E+00
  0.00000000E+00  0.00000000E+00  0.00000000E+00
  0.00000000E+00  0.00000000E+00  0.00000000E+00
  0.00000000E+00  0.00000000E+00  0.00000000E+00
  0.00000000E+00  0.00000000E+00  0.00000000E+00
  0.00000000E+00  0.00000000E+00  0.00000000E+00
  0.00000000E+00  0.00000000E+00  0.00000000E+00
  0.00000000E+00  0.00000000E+00  0.00000000E+00
  0.00000000E+00  0.00000000E+00  0.00000000E+00
  0.00000000E+00  0.00000000E+00  0.00000000E+00
  0.00000000E+00  0.00000000E+00  0.00000000E+00
  0.00000000E+00  0.00000000E+00  0.00000000E+00
  0.00000000E+00  0.00000000E+00  0.00000000E+00
  0.00000000E+00  0.00000000E+00  0.00000000E+00
  0.00000000E+00  0.00000000E+00  0.00000000E+00
  0.00000000E+00  0.00000000E+00  0.00000000E+00
  0.00000000E+00  0.00000000E+00  0.00000000E+00
  0.00000000E+00  0.00000000E+00  0.00000000E+00
  0.00000000E+00  0.00000000E+00  0.00000000E+00
  0.00000000E+00  0.00000000E+00  0.00000000E+00
  0.00000000E+00  0.00000000E+00  0.00000000E+00
  0.00000000E+00  0.00000000E+00  0.00000000E+00
  0.00000000E+00  0.00000000E+00  0.00000000E+00
  0.00000000E+00  0.00000000E+00  0.00000000E+00
  0.00000000E+00  0.00000000E+00  0.00000000E+00
  0.00000000E+00  0.00000000E+00  0.00000000E+00
  0.00000000E+00  0.00000000E+00  0.00000000E+00
  0.00000000E+00  0.00000000E+00  0.00000000E+00
  0.00000000E+00  0.00000000E+00  0.00000000E+00
  0.00000000E+00  0.00000000E+00  0.00000000E+00
  0.00000000E+00  0.00000000E+00  0.00000000E+00
  0.00000000E+00  0.00000000E+00  0.00000000E+00
  0.00000000E+00  0.00000000E+00  0.00000000E+00
  0.00000000E+00  0.00000000E+00  0.00000000E+00
  0.00000000E+00  0.00000000E+00  0.00000000E+00
  0.00000000E+00  0.00000000E+00  0.00000000E+00
  0.00000000E+00  0.00000000E+00  0.00000000E+00
  0.00000000E+00  0.00000000E+00  0.00000000E+00
  0.00000000E+00  0.00000000E+00  0.00000000E+00
  0.00000000E+00  0.00000000E+00  0.00000000E+00
  0.00000000E+00  0.00000000E+00  0.00000000E+00
  0.00000000E+00  0.00000000E+00  0.00000000E+00
  0.00000000E+00  0.00000000E+00  0.00000000E+00
