Primitive Cell                          
   1.00000000000000     
    29.2525013736766546    0.0000000000000000    0.0000000000000000
   -14.6262506868383326   25.3334093138431555    0.0000000000000000
     0.0000000000000000    0.0000000000000000   20.0000000000000000
   H    N    C 
    36    12    57
Direct
  0.0206724581928341  0.5103362290964171  0.6708062174538796
  0.5144327072925634  0.8816089084636687  0.5031107313899739
  0.4649463032126633  0.7831025893637218  0.5015359820612417
  0.3671762011710982  0.8816089084636687  0.5031107313899739
  0.3181562861510585  0.7831025893637218  0.5015359820612417
  0.2168974106362782  0.6818437138489415  0.5015359820612417
  0.1183910915363313  0.6328237988289018  0.5031107313899739
  0.2168974106362782  0.5350536967873296  0.5015359820612417
  0.1183910915363313  0.4855672927074366  0.5031107313899739
  0.3181562861510585  0.5350536967873296  0.5015359820612417
  0.3671762011710982  0.4855672927074366  0.5031107313899739
  0.5144327072925634  0.6328237988289018  0.5031107313899739
  0.4649463032126633  0.6818437138489415  0.5015359820612417
  0.4855776430187646  0.1184284531166213  0.5029181159257092
  0.5351108676028176  0.2170091088848451  0.5026653686444220
  0.6328508100978638  0.1184284531166213  0.5029181159257092
  0.6818982412820418  0.2170091088848451  0.5026653686444220
  0.7829908911151549  0.3181017587179582  0.5026653686444220
  0.8815715468833716  0.3671491899021433  0.5029181159257092
  0.7829908911151549  0.4648891323971824  0.5026653686444220
  0.8815715468833716  0.5144223569812354  0.5029181159257092
  0.6818982412820418  0.4648891323971824  0.5026653686444220
  0.6328508100978638  0.5144223569812354  0.5029181159257092
  0.4855776430187646  0.3671491899021433  0.5029181159257092
  0.5351108676028176  0.3181017587179582  0.5026653686444220
  0.4896637709035829  0.5103362290964171  0.6708062174538796
  0.4317824989206471  0.5079767603713208  0.6371854701348880
  0.4920232396286792  0.5682175010793529  0.6371854701348880
  0.4896637709035829  0.9793275418071659  0.6708062174538796
  0.4920232396286792  0.9238057385493263  0.6371854701348880
  0.4317824989206471  0.9238057385493263  0.6371854701348880
  0.0761942614506737  0.5682175010793529  0.6371854701348880
  0.0761942614506737  0.5079767603713208  0.6371854701348880
  0.5218307204542825  0.4781692795457246  0.3954017919647086
  0.5218307204542825  0.0436614409085578  0.3954017919647086
  0.9563385590914422  0.4781692795457246  0.3954017919647086
  0.0288798842395792  0.5144399421197861  0.4440194248872515
  0.3875814656300349  0.6937907328150175  0.5004819755747221
  0.3062092671849825  0.6124185343699651  0.5004819755747221
  0.3062092671849825  0.6937907328150175  0.5004819755747221
  0.6124359209555479  0.3062179604777668  0.5030599286860777
  0.6937820395222332  0.3875640790444592  0.5030599286860777
  0.6937820395222332  0.3062179604777668  0.5030599286860777
  0.5144977855557684  0.4855022144442316  0.5632612469348999
  0.5144977855557684  0.0289955711115368  0.5632612469348999
  0.9710044288884703  0.4855022144442316  0.5632612469348999
  0.4855600578802139  0.5144399421197861  0.4440194248872515
  0.4855600578802139  0.9711201157604208  0.4440194248872515
  0.0240204776870385  0.5120102388435157  0.5641591958464716
  0.0530812693000939  0.5265406346500470  0.5036646635179451
  0.0506165820232027  0.5253082910116049  0.6312802897275986
  0.3592732440329414  0.7185464880658827  0.5006027607524572
  0.3592732440329414  0.6407267559670586  0.5006027607524572
  0.2814535119341173  0.6407267559670586  0.5006027607524572
  0.3884907600109528  0.6115092399890472  0.5015162012417917
  0.4439380500711607  0.6388533751400445  0.5020662173848933
  0.4713555851962354  0.6113341559218668  0.5030752228208755
  0.4440307042330289  0.5559692957669711  0.5034036710831700
  0.3886658440781332  0.5286444148037646  0.5030752228208755
  0.3611466248599555  0.5560619499288393  0.5020662173848933
  0.3884907600109528  0.7769815200219057  0.5015162012417917
  0.4439380500711607  0.8050846749311233  0.5020662173848933
  0.4713555851962354  0.8600214292743757  0.5030752228208755
  0.4440307042330289  0.8880614084660579  0.5034036710831700
  0.3886658440781332  0.8600214292743757  0.5030752228208755
  0.3611466248599555  0.8050846749311233  0.5020662173848933
  0.2230184799780943  0.6115092399890472  0.5015162012417917
  0.1949153250688767  0.6388533751400445  0.5020662173848933
  0.1399785707256243  0.6113341559218668  0.5030752228208755
  0.1119385915339421  0.5559692957669711  0.5034036710831700
  0.1399785707256243  0.5286444148037646  0.5030752228208755
  0.1949153250688767  0.5560619499288393  0.5020662173848933
  0.6407363248877260  0.2814726497754521  0.5030236924963418
  0.6407363248877260  0.3592636751122740  0.5030236924963418
  0.7185273502245479  0.3592636751122740  0.5030236924963418
  0.6115329901672908  0.3884670098327092  0.5027443381292471
  0.5560929114412403  0.3611033594010706  0.5026278708976193
  0.5286566617846304  0.3886193673366733  0.5026550348952910
  0.5560170523827637  0.4439829476172292  0.5028604987132184
  0.6113806326633267  0.4713433382153696  0.5026550348952910
  0.6388966405989294  0.4439070885587597  0.5026278708976193
  0.6115329901672908  0.2230659803345745  0.5027443381292471
  0.5560929114412403  0.1949895520401697  0.5026278708976193
  0.5286566617846304  0.1400372944479642  0.5026550348952910
  0.5560170523827637  0.1120341047655415  0.5028604987132184
  0.6113806326633267  0.1400372944479642  0.5026550348952910
  0.6388966405989294  0.1949895520401697  0.5026278708976193
  0.7769340196654255  0.3884670098327092  0.5027443381292471
  0.8050104479598303  0.3611033594010706  0.5026278708976193
  0.8599627055520358  0.3886193673366733  0.5026550348952910
  0.8879658952344585  0.4439829476172292  0.5028604987132184
  0.8599627055520358  0.4713433382153696  0.5026550348952910
  0.8050104479598303  0.4439070885587597  0.5026278708976193
  0.4879897611564843  0.5120102388435157  0.5641591958464716
  0.4734593653499530  0.5265406346500470  0.5036646635179451
  0.4746917089883951  0.5253082910116049  0.6312802897275986
  0.4879897611564843  0.9759795223129615  0.5641591958464716
  0.4734593653499530  0.9469187306999061  0.5036646635179451
  0.4746917089883951  0.9493834179767902  0.6312802897275986
  0.5266248257982085  0.4733751742017915  0.5034550560298001
  0.5119908180001858  0.4880091819998142  0.4440435729706067
  0.5266248257982085  0.0532496515964240  0.5034550560298001
  0.5119908180001858  0.0239816360003502  0.4440435729706067
  0.9467503484035760  0.4733751742017915  0.5034550560298001
  0.9760183639996498  0.4880091819998142  0.4440435729706067
 
  0.00000000E+00  0.00000000E+00  0.00000000E+00
  0.00000000E+00  0.00000000E+00  0.00000000E+00
  0.00000000E+00  0.00000000E+00  0.00000000E+00
  0.00000000E+00  0.00000000E+00  0.00000000E+00
  0.00000000E+00  0.00000000E+00  0.00000000E+00
  0.00000000E+00  0.00000000E+00  0.00000000E+00
  0.00000000E+00  0.00000000E+00  0.00000000E+00
  0.00000000E+00  0.00000000E+00  0.00000000E+00
  0.00000000E+00  0.00000000E+00  0.00000000E+00
  0.00000000E+00  0.00000000E+00  0.00000000E+00
  0.00000000E+00  0.00000000E+00  0.00000000E+00
  0.00000000E+00  0.00000000E+00  0.00000000E+00
  0.00000000E+00  0.00000000E+00  0.00000000E+00
  0.00000000E+00  0.00000000E+00  0.00000000E+00
  0.00000000E+00  0.00000000E+00  0.00000000E+00
  0.00000000E+00  0.00000000E+00  0.00000000E+00
  0.00000000E+00  0.00000000E+00  0.00000000E+00
  0.00000000E+00  0.00000000E+00  0.00000000E+00
  0.00000000E+00  0.00000000E+00  0.00000000E+00
  0.00000000E+00  0.00000000E+00  0.00000000E+00
  0.00000000E+00  0.00000000E+00  0.00000000E+00
  0.00000000E+00  0.00000000E+00  0.00000000E+00
  0.00000000E+00  0.00000000E+00  0.00000000E+00
  0.00000000E+00  0.00000000E+00  0.00000000E+00
  0.00000000E+00  0.00000000E+00  0.00000000E+00
  0.00000000E+00  0.00000000E+00  0.00000000E+00
  0.00000000E+00  0.00000000E+00  0.00000000E+00
  0.00000000E+00  0.00000000E+00  0.00000000E+00
  0.00000000E+00  0.00000000E+00  0.00000000E+00
  0.00000000E+00  0.00000000E+00  0.00000000E+00
  0.00000000E+00  0.00000000E+00  0.00000000E+00
  0.00000000E+00  0.00000000E+00  0.00000000E+00
  0.00000000E+00  0.00000000E+00  0.00000000E+00
  0.00000000E+00  0.00000000E+00  0.00000000E+00
  0.00000000E+00  0.00000000E+00  0.00000000E+00
  0.00000000E+00  0.00000000E+00  0.00000000E+00
  0.00000000E+00  0.00000000E+00  0.00000000E+00
  0.00000000E+00  0.00000000E+00  0.00000000E+00
  0.00000000E+00  0.00000000E+00  0.00000000E+00
  0.00000000E+00  0.00000000E+00  0.00000000E+00
  0.00000000E+00  0.00000000E+00  0.00000000E+00
  0.00000000E+00  0.00000000E+00  0.00000000E+00
  0.00000000E+00  0.00000000E+00  0.00000000E+00
  0.00000000E+00  0.00000000E+00  0.00000000E+00
  0.00000000E+00  0.00000000E+00  0.00000000E+00
  0.00000000E+00  0.00000000E+00  0.00000000E+00
  0.00000000E+00  0.00000000E+00  0.00000000E+00
  0.00000000E+00  0.00000000E+00  0.00000000E+00
  0.00000000E+00  0.00000000E+00  0.00000000E+00
  0.00000000E+00  0.00000000E+00  0.00000000E+00
  0.00000000E+00  0.00000000E+00  0.00000000E+00
  0.00000000E+00  0.00000000E+00  0.00000000E+00
  0.00000000E+00  0.00000000E+00  0.00000000E+00
  0.00000000E+00  0.00000000E+00  0.00000000E+00
  0.00000000E+00  0.00000000E+00  0.00000000E+00
  0.00000000E+00  0.00000000E+00  0.00000000E+00
  0.00000000E+00  0.00000000E+00  0.00000000E+00
  0.00000000E+00  0.00000000E+00  0.00000000E+00
  0.00000000E+00  0.00000000E+00  0.00000000E+00
  0.00000000E+00  0.00000000E+00  0.00000000E+00
  0.00000000E+00  0.00000000E+00  0.00000000E+00
  0.00000000E+00  0.00000000E+00  0.00000000E+00
  0.00000000E+00  0.00000000E+00  0.00000000E+00
  0.00000000E+00  0.00000000E+00  0.00000000E+00
  0.00000000E+00  0.00000000E+00  0.00000000E+00
  0.00000000E+00  0.00000000E+00  0.00000000E+00
  0.00000000E+00  0.00000000E+00  0.00000000E+00
  0.00000000E+00  0.00000000E+00  0.00000000E+00
  0.00000000E+00  0.00000000E+00  0.00000000E+00
  0.00000000E+00  0.00000000E+00  0.00000000E+00
  0.00000000E+00  0.00000000E+00  0.00000000E+00
  0.00000000E+00  0.00000000E+00  0.00000000E+00
  0.00000000E+00  0.00000000E+00  0.00000000E+00
  0.00000000E+00  0.00000000E+00  0.00000000E+00
  0.00000000E+00  0.00000000E+00  0.00000000E+00
  0.00000000E+00  0.00000000E+00  0.00000000E+00
  0.00000000E+00  0.00000000E+00  0.00000000E+00
  0.00000000E+00  0.00000000E+00  0.00000000E+00
  0.00000000E+00  0.00000000E+00  0.00000000E+00
  0.00000000E+00  0.00000000E+00  0.00000000E+00
  0.00000000E+00  0.00000000E+00  0.00000000E+00
  0.00000000E+00  0.00000000E+00  0.00000000E+00
  0.00000000E+00  0.00000000E+00  0.00000000E+00
  0.00000000E+00  0.00000000E+00  0.00000000E+00
  0.00000000E+00  0.00000000E+00  0.00000000E+00
  0.00000000E+00  0.00000000E+00  0.00000000E+00
  0.00000000E+00  0.00000000E+00  0.00000000E+00
  0.00000000E+00  0.00000000E+00  0.00000000E+00
  0.00000000E+00  0.00000000E+00  0.00000000E+00
  0.00000000E+00  0.00000000E+00  0.00000000E+00
  0.00000000E+00  0.00000000E+00  0.00000000E+00
  0.00000000E+00  0.00000000E+00  0.00000000E+00
  0.00000000E+00  0.00000000E+00  0.00000000E+00
  0.00000000E+00  0.00000000E+00  0.00000000E+00
  0.00000000E+00  0.00000000E+00  0.00000000E+00
  0.00000000E+00  0.00000000E+00  0.00000000E+00
  0.00000000E+00  0.00000000E+00  0.00000000E+00
  0.00000000E+00  0.00000000E+00  0.00000000E+00
  0.00000000E+00  0.00000000E+00  0.00000000E+00
  0.00000000E+00  0.00000000E+00  0.00000000E+00
  0.00000000E+00  0.00000000E+00  0.00000000E+00
  0.00000000E+00  0.00000000E+00  0.00000000E+00
  0.00000000E+00  0.00000000E+00  0.00000000E+00
  0.00000000E+00  0.00000000E+00  0.00000000E+00
  0.00000000E+00  0.00000000E+00  0.00000000E+00
