Primitive Cell                          
   1.00000000000000     
    22.0300556104802006   -0.0000000114233459    0.0000000000000000
   -11.0150277953472120   19.0785878111714275    0.0000000000000000
     0.0000000000000000    0.0000000000000000   20.0000000000000000
   H    C    N    O 
    18    42    12    12
Direct
  0.5169527541020713  0.2828478508783263  0.3861029798708913
  0.5052989983304315  0.2270281333806210  0.5946576892963478
  0.3754009223595958  0.1647756985653928  0.5879080897234488
  0.7658950967762550  0.4830472458979287  0.3861029798708913
  0.7726677065070362  0.7120281457309261  0.4266173512849321
  0.7171521491216737  0.2341049032237450  0.3861029798708913
  0.7217291350501895  0.4947010016695685  0.5946576892963478
  0.7893747762057970  0.6245990776404042  0.5879080897234488
  0.7737905623416950  0.0558176790241802  0.5367224294536612
  0.7729718666193790  0.2782708649498105  0.5946576892963478
  0.9393604392239041  0.2273322934929638  0.4266173512849321
  0.2879718542690668  0.0606395607760959  0.4266173512849321
  0.9441823209758198  0.7179728833175147  0.5367224294536612
  0.0074656763183469  0.8484236871180926  0.5319924350420067
  0.8409580107997385  0.9925343236816531  0.5319924350420067
  0.8352243014346072  0.2106252237942030  0.5879080897234488
  0.2820271166824853  0.2262094376583050  0.5367224294536612
  0.1515763128819074  0.1590419892002615  0.5319924350420067
  0.3720233659075305  0.1881645648588233  0.4840887511682652
  0.4141775651316308  0.2215062832843415  0.4281188049414908
  0.4870803839842353  0.2576178712819157  0.4311083663952289
  0.5201800505450365  0.2602253759716504  0.4913314457352556
  0.4797382208748999  0.2261018757236357  0.5476640949992273
  0.4067756364747694  0.1912880904297651  0.5439098389155959
  0.7009083403138732  0.2990960844356465  0.4939016128099780
  0.5981877441217804  0.2990916596861268  0.4939016128099780
  0.7009039155643535  0.4018122558782196  0.4939016128099780
  0.8073287181527036  0.5858224348683692  0.4281188049414908
  0.7705374872976876  0.5129196160157647  0.4311083663952289
  0.7400453254266068  0.4798199494549635  0.4913314457352556
  0.7784937167156585  0.1926712818472964  0.4281188049414908
  0.7423821287180843  0.2294625127023124  0.4311083663952289
  0.7397746240283496  0.2599546745733932  0.4913314457352556
  0.7463636548487358  0.5202617791251072  0.5476640949992273
  0.7845124539549957  0.5932243635252306  0.5439098389155959
  0.7738981242763643  0.2536363451512642  0.5476640949992273
  0.8087119095702349  0.2154875460450043  0.5439098389155959
  0.9661412489378733  0.0346894476356852  0.4776923460406337
  0.0685481986978189  0.0338587510621267  0.4776923460406337
  0.9653105523643148  0.9314518013021811  0.4776923460406337
  0.9266288299196148  0.8539660926632209  0.4773543824650872
  0.8602121491581372  0.8137526416812264  0.4481561823479936
  0.8239564033788582  0.7409470385726920  0.4503593955729315
  0.8542805433384189  0.7058800123218347  0.4819371048682299
  0.8161411989512928  0.6279766340924766  0.4840887511682652
  0.9273372627436061  0.0733711700803852  0.4773543824650872
  0.9535404925230893  0.1397878508418628  0.4481561823479936
  0.9169906351938337  0.1760435966211418  0.4503593955729315
  0.8515994689834159  0.1457194566615811  0.4819371048682299
  0.8118354351411767  0.1838588010487001  0.4840887511682652
  0.1460339073367791  0.0726627372563939  0.4773543824650872
  0.1862473583187736  0.0464595074769107  0.4481561823479936
  0.2590529614273080  0.0830093648061592  0.4503593955729315
  0.2941199876781653  0.1484005310165841  0.4819371048682299
  0.9201537016672248  0.7449645898002686  0.5122306766292013
  0.9557703921980121  0.8177966808258645  0.5094083863361831
  0.8248108881330438  0.0798462983327752  0.5122306766292013
  0.8620262886278596  0.0442296078019879  0.5094083863361831
  0.2550354101997314  0.1751891118669562  0.5122306766292013
  0.1822033191741355  0.1379737113721404  0.5094083863361831
  0.3825272736308065  0.2207797783783931  0.3625574600175980
  0.6305212650772489  0.2610718332850084  0.4939850556959158
  0.6305505682077523  0.3694787349227511  0.4939850556959158
  0.7389281667149916  0.3694494317922477  0.4939850556959158
  0.7792202216216069  0.1617474952524134  0.3625574600175980
  0.0364314502875729  0.0720248808836033  0.4782946141004345
  0.0355934305960304  0.9635685497124271  0.4782946141004345
  0.9279751191163967  0.9644065694039696  0.4782946141004345
  0.8382525047475866  0.6174727263691935  0.3625574600175980
  0.8267638407958202  0.8462654129822695  0.4090332055357848
  0.0195015721864564  0.1732361592041798  0.4090332055357848
  0.1537345870177305  0.9804984278135436  0.4090332055357848
  0.4143486706406208  0.2191776686515183  0.3120660242038298
  0.3272422684195462  0.2225102645787871  0.3627248761810975
  0.8048289980109047  0.5856513293593792  0.3120660242038298
  0.7672244366387844  0.8321277000498739  0.4266860227904417
  0.7774897354212129  0.1047320038407591  0.3627248761810975
  0.8952679961592409  0.6727577315804538  0.3627248761810975
  0.8596020902054704  0.8823459450545172  0.3604734531783009
  0.7808223313484746  0.1951710019890953  0.3120660242038298
  0.0649032634110966  0.2327755633612156  0.4266860227904417
  0.0227438548490397  0.1403979097945296  0.3604734531783009
  0.1678722999501261  0.9350967365889034  0.4266860227904417
  0.1176540549454899  0.9772561451509603  0.3604734531783009
 
  0.00000000E+00  0.00000000E+00  0.00000000E+00
  0.00000000E+00  0.00000000E+00  0.00000000E+00
  0.00000000E+00  0.00000000E+00  0.00000000E+00
  0.00000000E+00  0.00000000E+00  0.00000000E+00
  0.00000000E+00  0.00000000E+00  0.00000000E+00
  0.00000000E+00  0.00000000E+00  0.00000000E+00
  0.00000000E+00  0.00000000E+00  0.00000000E+00
  0.00000000E+00  0.00000000E+00  0.00000000E+00
  0.00000000E+00  0.00000000E+00  0.00000000E+00
  0.00000000E+00  0.00000000E+00  0.00000000E+00
  0.00000000E+00  0.00000000E+00  0.00000000E+00
  0.00000000E+00  0.00000000E+00  0.00000000E+00
  0.00000000E+00  0.00000000E+00  0.00000000E+00
  0.00000000E+00  0.00000000E+00  0.00000000E+00
  0.00000000E+00  0.00000000E+00  0.00000000E+00
  0.00000000E+00  0.00000000E+00  0.00000000E+00
  0.00000000E+00  0.00000000E+00  0.00000000E+00
  0.00000000E+00  0.00000000E+00  0.00000000E+00
  0.00000000E+00  0.00000000E+00  0.00000000E+00
  0.00000000E+00  0.00000000E+00  0.00000000E+00
  0.00000000E+00  0.00000000E+00  0.00000000E+00
  0.00000000E+00  0.00000000E+00  0.00000000E+00
  0.00000000E+00  0.00000000E+00  0.00000000E+00
  0.00000000E+00  0.00000000E+00  0.00000000E+00
  0.00000000E+00  0.00000000E+00  0.00000000E+00
  0.00000000E+00  0.00000000E+00  0.00000000E+00
  0.00000000E+00  0.00000000E+00  0.00000000E+00
  0.00000000E+00  0.00000000E+00  0.00000000E+00
  0.00000000E+00  0.00000000E+00  0.00000000E+00
  0.00000000E+00  0.00000000E+00  0.00000000E+00
  0.00000000E+00  0.00000000E+00  0.00000000E+00
  0.00000000E+00  0.00000000E+00  0.00000000E+00
  0.00000000E+00  0.00000000E+00  0.00000000E+00
  0.00000000E+00  0.00000000E+00  0.00000000E+00
  0.00000000E+00  0.00000000E+00  0.00000000E+00
  0.00000000E+00  0.00000000E+00  0.00000000E+00
  0.00000000E+00  0.00000000E+00  0.00000000E+00
  0.00000000E+00  0.00000000E+00  0.00000000E+00
  0.00000000E+00  0.00000000E+00  0.00000000E+00
  0.00000000E+00  0.00000000E+00  0.00000000E+00
  0.00000000E+00  0.00000000E+00  0.00000000E+00
  0.00000000E+00  0.00000000E+00  0.00000000E+00
  0.00000000E+00  0.00000000E+00  0.00000000E+00
  0.00000000E+00  0.00000000E+00  0.00000000E+00
  0.00000000E+00  0.00000000E+00  0.00000000E+00
  0.00000000E+00  0.00000000E+00  0.00000000E+00
  0.00000000E+00  0.00000000E+00  0.00000000E+00
  0.00000000E+00  0.00000000E+00  0.00000000E+00
  0.00000000E+00  0.00000000E+00  0.00000000E+00
  0.00000000E+00  0.00000000E+00  0.00000000E+00
  0.00000000E+00  0.00000000E+00  0.00000000E+00
  0.00000000E+00  0.00000000E+00  0.00000000E+00
  0.00000000E+00  0.00000000E+00  0.00000000E+00
  0.00000000E+00  0.00000000E+00  0.00000000E+00
  0.00000000E+00  0.00000000E+00  0.00000000E+00
  0.00000000E+00  0.00000000E+00  0.00000000E+00
  0.00000000E+00  0.00000000E+00  0.00000000E+00
  0.00000000E+00  0.00000000E+00  0.00000000E+00
  0.00000000E+00  0.00000000E+00  0.00000000E+00
  0.00000000E+00  0.00000000E+00  0.00000000E+00
  0.00000000E+00  0.00000000E+00  0.00000000E+00
  0.00000000E+00  0.00000000E+00  0.00000000E+00
  0.00000000E+00  0.00000000E+00  0.00000000E+00
  0.00000000E+00  0.00000000E+00  0.00000000E+00
  0.00000000E+00  0.00000000E+00  0.00000000E+00
  0.00000000E+00  0.00000000E+00  0.00000000E+00
  0.00000000E+00  0.00000000E+00  0.00000000E+00
  0.00000000E+00  0.00000000E+00  0.00000000E+00
  0.00000000E+00  0.00000000E+00  0.00000000E+00
  0.00000000E+00  0.00000000E+00  0.00000000E+00
  0.00000000E+00  0.00000000E+00  0.00000000E+00
  0.00000000E+00  0.00000000E+00  0.00000000E+00
  0.00000000E+00  0.00000000E+00  0.00000000E+00
  0.00000000E+00  0.00000000E+00  0.00000000E+00
  0.00000000E+00  0.00000000E+00  0.00000000E+00
  0.00000000E+00  0.00000000E+00  0.00000000E+00
  0.00000000E+00  0.00000000E+00  0.00000000E+00
  0.00000000E+00  0.00000000E+00  0.00000000E+00
  0.00000000E+00  0.00000000E+00  0.00000000E+00
  0.00000000E+00  0.00000000E+00  0.00000000E+00
  0.00000000E+00  0.00000000E+00  0.00000000E+00
  0.00000000E+00  0.00000000E+00  0.00000000E+00
  0.00000000E+00  0.00000000E+00  0.00000000E+00
  0.00000000E+00  0.00000000E+00  0.00000000E+00
