Primitive Cell                          
   1.00000000000000     
    29.2661554923567522    0.0000000000000000    0.0000000000000000
   -14.6330777461783867   25.3452341274864139    0.0000000000000000
     0.0000000000000000    0.0000000000000000   20.0000000000000000
   N    C    H 
    15    57    27
Direct
  0.0294433521228186  0.5147216760614128  0.5637225485949244
  0.3875404218728846  0.6937702109364352  0.5028835983234572
  0.3062297890635577  0.6124595781271154  0.5028835983234572
  0.3062297890635577  0.6937702109364352  0.5028835983234572
  0.6124551957323305  0.3062275978661688  0.5011644866650613
  0.6937724021338312  0.3875448042676695  0.5011644866650613
  0.6937724021338312  0.3062275978661688  0.5011644866650613
  0.4852783239385943  0.5147216760614128  0.5637225485949244
  0.5356532376929977  0.4643467623070023  0.6785627255616831
  0.4852783239385943  0.9705566478771814  0.5637225485949244
  0.5356532376929977  0.0713064753859740  0.6785627255616831
  0.9286935246140189  0.4643467623070023  0.6785627255616831
  0.5143203684183320  0.4856796315816680  0.4440812081087557
  0.5143203684183320  0.0286407368366781  0.4440812081087557
  0.9713592631633219  0.4856796315816680  0.4440812081087557
  0.0240887850692602  0.5120443925346265  0.4445692876785259
  0.3592449539899434  0.7184899079798868  0.5028902159389546
  0.3592449539899434  0.6407550460100566  0.5028902159389546
  0.2815100920201132  0.6407550460100566  0.5028902159389546
  0.3884465493163489  0.6115534506836511  0.5027963786780418
  0.4438520005761646  0.6389418712067609  0.5027872514651648
  0.4713034498178672  0.6114806809997830  0.5029806511143278
  0.4438411735436887  0.5561588264563113  0.5033057225091184
  0.3885193190002170  0.5286965501821328  0.5029806511143278
  0.3610581287932391  0.5561479994238354  0.5027872514651648
  0.3884465493163489  0.7768930986327049  0.5027963786780418
  0.4438520005761646  0.8049101293693965  0.5027872514651648
  0.4713034498178672  0.8598227688180913  0.5029806511143278
  0.4438411735436887  0.8876823470873703  0.5033057225091184
  0.3885193190002170  0.8598227688180913  0.5029806511143278
  0.3610581287932391  0.8049101293693965  0.5027872514651648
  0.2231069013672951  0.6115534506836511  0.5027963786780418
  0.1950898706306035  0.6389418712067609  0.5027872514651648
  0.1401772311819087  0.6114806809997830  0.5029806511143278
  0.1123176529126297  0.5561588264563113  0.5033057225091184
  0.1401772311819087  0.5286965501821328  0.5029806511143278
  0.1950898706306035  0.5561479994238354  0.5027872514651648
  0.6407462555723455  0.2814925111446911  0.5012911056268905
  0.6407462555723455  0.3592537444276545  0.5012911056268905
  0.7185074888553089  0.3592537444276545  0.5012911056268905
  0.6115163710800218  0.3884836289199782  0.5019931871485497
  0.5561133712416506  0.3611320239084250  0.5025414953619816
  0.5286509220029174  0.3885765892552087  0.5033890896212512
  0.5561040357082376  0.4438959642917624  0.5035990552907847
  0.6114234107447913  0.4713490779970826  0.5033890896212512
  0.6388679760915750  0.4438866287583494  0.5025414953619816
  0.6115163710800218  0.2230327421600293  0.5019931871485497
  0.5561133712416506  0.1949813473332185  0.5025414953619816
  0.5286509220029174  0.1400743327477016  0.5033890896212512
  0.5561040357082376  0.1122080714164824  0.5035990552907847
  0.6114234107447913  0.1400743327477016  0.5033890896212512
  0.6388679760915750  0.1949813473332185  0.5025414953619816
  0.7769672578399707  0.3884836289199782  0.5019931871485497
  0.8050186526667815  0.3611320239084250  0.5025414953619816
  0.8599256672522984  0.3885765892552087  0.5033890896212512
  0.8877919285835176  0.4438959642917624  0.5035990552907847
  0.8599256672522984  0.4713490779970826  0.5033890896212512
  0.8050186526667815  0.4438866287583494  0.5025414953619816
  0.5267467183292425  0.4732532816707575  0.5033765221297841
  0.4731978281945928  0.5268021718054072  0.5041601814770829
  0.5118429249460092  0.4881570750539908  0.5631861436939403
  0.5248265312393841  0.4751734687606159  0.6270341159402832
  0.5267467183292425  0.0534934366584849  0.5033765221297841
  0.4731978281945928  0.9463956563891855  0.5041601814770829
  0.5118429249460092  0.0236858498920114  0.5631861436939403
  0.5248265312393841  0.0496530624787681  0.6270341159402832
  0.9465065633415151  0.4732532816707575  0.5033765221297841
  0.0536043436108145  0.5268021718054072  0.5041601814770829
  0.9763141501079886  0.4881570750539908  0.5631861436939403
  0.9503469375212319  0.4751734687606159  0.6270341159402832
  0.4879556074653735  0.5120443925346265  0.4445692876785259
  0.4879556074653735  0.9759112149307398  0.4445692876785259
  0.0439042096696767  0.5219521048348454  0.3960086176581044
  0.5143526557474516  0.8813764827118220  0.5034215472977550
  0.4648258099034805  0.7829139102300573  0.5028670565077675
  0.3670238269643775  0.8813764827118220  0.5034215472977550
  0.3180881003265768  0.7829139102300573  0.5028670565077675
  0.2170860897699427  0.6819118996734232  0.5028670565077675
  0.1186235172881780  0.6329761730356296  0.5034215472977550
  0.2170860897699427  0.5351741900965195  0.5028670565077675
  0.1186235172881780  0.4856473442525484  0.5034215472977550
  0.3180881003265768  0.5351741900965195  0.5028670565077675
  0.3670238269643775  0.4856473442525484  0.5034215472977550
  0.5143526557474516  0.6329761730356296  0.5034215472977550
  0.4648258099034805  0.6819118996734232  0.5028670565077675
  0.4856129040656612  0.1185621608635401  0.5037296241441069
  0.5350984887730732  0.2169345512594347  0.5023230994956833
  0.6329492567978789  0.1185621608635401  0.5037296241441069
  0.6818360624863544  0.2169345512594347  0.5023230994956833
  0.7830654487405653  0.3181639375136456  0.5023230994956833
  0.8814378391364599  0.3670507432021211  0.5037296241441069
  0.7830654487405653  0.4649015112269268  0.5023230994956833
  0.8814378391364599  0.5143870959343388  0.5037296241441069
  0.6818360624863544  0.4649015112269268  0.5023230994956833
  0.6329492567978789  0.5143870959343388  0.5037296241441069
  0.4856129040656612  0.3670507432021211  0.5037296241441069
  0.5350984887730732  0.3181639375136456  0.5023230994956833
  0.4780478951651546  0.5219521048348454  0.3960086176581044
  0.4780478951651546  0.9560957903303233  0.3960086176581044
 
  0.00000000E+00  0.00000000E+00  0.00000000E+00
  0.00000000E+00  0.00000000E+00  0.00000000E+00
  0.00000000E+00  0.00000000E+00  0.00000000E+00
  0.00000000E+00  0.00000000E+00  0.00000000E+00
  0.00000000E+00  0.00000000E+00  0.00000000E+00
  0.00000000E+00  0.00000000E+00  0.00000000E+00
  0.00000000E+00  0.00000000E+00  0.00000000E+00
  0.00000000E+00  0.00000000E+00  0.00000000E+00
  0.00000000E+00  0.00000000E+00  0.00000000E+00
  0.00000000E+00  0.00000000E+00  0.00000000E+00
  0.00000000E+00  0.00000000E+00  0.00000000E+00
  0.00000000E+00  0.00000000E+00  0.00000000E+00
  0.00000000E+00  0.00000000E+00  0.00000000E+00
  0.00000000E+00  0.00000000E+00  0.00000000E+00
  0.00000000E+00  0.00000000E+00  0.00000000E+00
  0.00000000E+00  0.00000000E+00  0.00000000E+00
  0.00000000E+00  0.00000000E+00  0.00000000E+00
  0.00000000E+00  0.00000000E+00  0.00000000E+00
  0.00000000E+00  0.00000000E+00  0.00000000E+00
  0.00000000E+00  0.00000000E+00  0.00000000E+00
  0.00000000E+00  0.00000000E+00  0.00000000E+00
  0.00000000E+00  0.00000000E+00  0.00000000E+00
  0.00000000E+00  0.00000000E+00  0.00000000E+00
  0.00000000E+00  0.00000000E+00  0.00000000E+00
  0.00000000E+00  0.00000000E+00  0.00000000E+00
  0.00000000E+00  0.00000000E+00  0.00000000E+00
  0.00000000E+00  0.00000000E+00  0.00000000E+00
  0.00000000E+00  0.00000000E+00  0.00000000E+00
  0.00000000E+00  0.00000000E+00  0.00000000E+00
  0.00000000E+00  0.00000000E+00  0.00000000E+00
  0.00000000E+00  0.00000000E+00  0.00000000E+00
  0.00000000E+00  0.00000000E+00  0.00000000E+00
  0.00000000E+00  0.00000000E+00  0.00000000E+00
  0.00000000E+00  0.00000000E+00  0.00000000E+00
  0.00000000E+00  0.00000000E+00  0.00000000E+00
  0.00000000E+00  0.00000000E+00  0.00000000E+00
  0.00000000E+00  0.00000000E+00  0.00000000E+00
  0.00000000E+00  0.00000000E+00  0.00000000E+00
  0.00000000E+00  0.00000000E+00  0.00000000E+00
  0.00000000E+00  0.00000000E+00  0.00000000E+00
  0.00000000E+00  0.00000000E+00  0.00000000E+00
  0.00000000E+00  0.00000000E+00  0.00000000E+00
  0.00000000E+00  0.00000000E+00  0.00000000E+00
  0.00000000E+00  0.00000000E+00  0.00000000E+00
  0.00000000E+00  0.00000000E+00  0.00000000E+00
  0.00000000E+00  0.00000000E+00  0.00000000E+00
  0.00000000E+00  0.00000000E+00  0.00000000E+00
  0.00000000E+00  0.00000000E+00  0.00000000E+00
  0.00000000E+00  0.00000000E+00  0.00000000E+00
  0.00000000E+00  0.00000000E+00  0.00000000E+00
  0.00000000E+00  0.00000000E+00  0.00000000E+00
  0.00000000E+00  0.00000000E+00  0.00000000E+00
  0.00000000E+00  0.00000000E+00  0.00000000E+00
  0.00000000E+00  0.00000000E+00  0.00000000E+00
  0.00000000E+00  0.00000000E+00  0.00000000E+00
  0.00000000E+00  0.00000000E+00  0.00000000E+00
  0.00000000E+00  0.00000000E+00  0.00000000E+00
  0.00000000E+00  0.00000000E+00  0.00000000E+00
  0.00000000E+00  0.00000000E+00  0.00000000E+00
  0.00000000E+00  0.00000000E+00  0.00000000E+00
  0.00000000E+00  0.00000000E+00  0.00000000E+00
  0.00000000E+00  0.00000000E+00  0.00000000E+00
  0.00000000E+00  0.00000000E+00  0.00000000E+00
  0.00000000E+00  0.00000000E+00  0.00000000E+00
  0.00000000E+00  0.00000000E+00  0.00000000E+00
  0.00000000E+00  0.00000000E+00  0.00000000E+00
  0.00000000E+00  0.00000000E+00  0.00000000E+00
  0.00000000E+00  0.00000000E+00  0.00000000E+00
  0.00000000E+00  0.00000000E+00  0.00000000E+00
  0.00000000E+00  0.00000000E+00  0.00000000E+00
  0.00000000E+00  0.00000000E+00  0.00000000E+00
  0.00000000E+00  0.00000000E+00  0.00000000E+00
  0.00000000E+00  0.00000000E+00  0.00000000E+00
  0.00000000E+00  0.00000000E+00  0.00000000E+00
  0.00000000E+00  0.00000000E+00  0.00000000E+00
  0.00000000E+00  0.00000000E+00  0.00000000E+00
  0.00000000E+00  0.00000000E+00  0.00000000E+00
  0.00000000E+00  0.00000000E+00  0.00000000E+00
  0.00000000E+00  0.00000000E+00  0.00000000E+00
  0.00000000E+00  0.00000000E+00  0.00000000E+00
  0.00000000E+00  0.00000000E+00  0.00000000E+00
  0.00000000E+00  0.00000000E+00  0.00000000E+00
  0.00000000E+00  0.00000000E+00  0.00000000E+00
  0.00000000E+00  0.00000000E+00  0.00000000E+00
  0.00000000E+00  0.00000000E+00  0.00000000E+00
  0.00000000E+00  0.00000000E+00  0.00000000E+00
  0.00000000E+00  0.00000000E+00  0.00000000E+00
  0.00000000E+00  0.00000000E+00  0.00000000E+00
  0.00000000E+00  0.00000000E+00  0.00000000E+00
  0.00000000E+00  0.00000000E+00  0.00000000E+00
  0.00000000E+00  0.00000000E+00  0.00000000E+00
  0.00000000E+00  0.00000000E+00  0.00000000E+00
  0.00000000E+00  0.00000000E+00  0.00000000E+00
  0.00000000E+00  0.00000000E+00  0.00000000E+00
  0.00000000E+00  0.00000000E+00  0.00000000E+00
  0.00000000E+00  0.00000000E+00  0.00000000E+00
  0.00000000E+00  0.00000000E+00  0.00000000E+00
  0.00000000E+00  0.00000000E+00  0.00000000E+00
  0.00000000E+00  0.00000000E+00  0.00000000E+00
