Primitive Cell                          
   1.00000000000000     
    21.6129465861786727    0.0397297940479094    0.0000000000000000
   -10.7722018999961051   18.6589282983879095    0.0000000000000000
     0.0000000000000000    0.0000000000000000   20.0000000000000000
   O    N    C    H 
    12    12    36    30
Direct
  0.4874223588703757  0.8366112586074550  0.5961147492569197
  0.3290735097105113  0.4961633712748679  0.5928008366742930
  0.1495999576904197  0.6560776200587242  0.5957383556814335
  0.4904280140433954  0.1570404054403056  0.3954613548628174
  0.6507434780624592  0.4972419873262623  0.3974955649672580
  0.8298946943193855  0.3364885491537279  0.3967289232893947
  0.5986355205698572  0.0884337729799611  0.5713941933708497
  0.4721288959894920  0.3865961736155725  0.5716653660931712
  0.8971411197077614  0.5137923399556783  0.5728157163739169
  0.3805664160597075  0.9034237847868880  0.4161588900358382
  0.5063234136936927  0.6063399481597429  0.4172845488539352
  0.0818551053517993  0.4808369187526722  0.4167887014820835
  0.5048284919983104  0.9725138584435840  0.5529913606536283
  0.5698935338566002  0.1367933239525030  0.4566971025105246
  0.4499365233864978  0.4806993804084314  0.5533375434590297
  0.5511938838652668  0.4171196726397142  0.4582818979317622
  0.0131079820274564  0.5365252254847306  0.5538455870481371
  0.8486773504221219  0.4352619200385632  0.4589980265586391
  0.4743515952815542  0.0194754727097006  0.4345058902325221
  0.4092171596648413  0.8553258976474964  0.5310998081544085
  0.5291421038988062  0.5127326067026630  0.4360156668393316
  0.4281041650634378  0.5763601063845343  0.5313203560209132
  0.9658837623600789  0.4576746922380153  0.4361411581461070
  0.1301402644592144  0.5582838761055982  0.5312527685907185
  0.3452336536657015  0.6125783748937366  0.5702391787699383
  0.2721073280670510  0.5898849003884905  0.5705793612943637
  0.2490696753116737  0.6400435069145658  0.5705598131595266
  0.2994331625471034  0.7133562427652649  0.5713364558756098
  0.3951221322537393  0.6857205210387605  0.5712417137453087
  0.3658534075152886  0.5555336892489251  0.5675311424963212
  0.1717070448164435  0.6196560755511413  0.5687095349020694
  0.6338676802205967  0.3804273387132255  0.4195723080266660
  0.7069551189902938  0.4029572617242323  0.4193386307706390
  0.7299378095543503  0.3527372244461375  0.4196189797530110
  0.6794638137403624  0.2794459159203413  0.4186303266158475
  0.5839062982448411  0.3072957903099649  0.4185602259530512
  0.6135528640494812  0.4377445176507351  0.4223807307164975
  0.8073456836956012  0.3731976241594168  0.4223467330346864
  0.5276365579755549  0.0647972294246486  0.4738082450646317
  0.5428687165996990  0.0399675690141876  0.5336997897307612
  0.6124089322094122  0.0611704586742050  0.6322547729195520
  0.5209233419318693  0.4590476348517427  0.4751076803348582
  0.4798491558820430  0.4429508835935181  0.5343631646171900
  0.4290310269417006  0.3708553082974575  0.6312639774841386
  0.9206476016214467  0.4656361007264209  0.4756279984016416
  0.9456081252609039  0.5064688646340798  0.5350713015143427
  0.9244391151899265  0.5562491745945763  0.6328564342314209
  0.3723652097429095  0.7363377410637710  0.5709852256046446
  0.4290635595310377  0.8139752911976217  0.5690132909490799
  0.6065224626058452  0.2565464432785802  0.4188049658038437
  0.5495033833340486  0.1789642758761616  0.4208371481338489
  0.4362842396305879  0.9520211866646662  0.4538197780840392
  0.4514483509246432  0.9272354258237598  0.5137983021895707
  0.3662678216878277  0.9304995144498491  0.3554684475574774
  0.4990656765123376  0.5503467847113228  0.4548826799216457
  0.4582537059666691  0.5344225452804139  0.5142827183471823
  0.5491183269197393  0.6217980306782778  0.3575057740904910
  0.0333849246849951  0.4878274733337520  0.4548291698629185
  0.0582810520574881  0.5283851306545628  0.5144501773025212
  0.0542687570799956  0.4377227644527153  0.3571331827765079
  0.2797622342869417  0.7511891395439534  0.5733067757146344
  0.4524208000853847  0.7053564875810494  0.5732414421063012
  0.2344969679485942  0.5323986479607967  0.5719562487697303
  0.6991340503287731  0.2416095040837760  0.4167321968667537
  0.5266072774480008  0.2876666057567547  0.4165593134655978
  0.7446095379095539  0.4604304157711923  0.4179132212204095
  0.6600265963869631  0.1065821099115141  0.6537709584471116
  0.5668905313456349  0.0423559093811292  0.6666244445030074
  0.6216002470231814  0.0164416833604548  0.6214486272488458
  0.6146713461839042  0.1632432011877469  0.4850970404409836
  0.4263269719058371  0.3225946879546697  0.6521379954596256
  0.4541819988810047  0.4155191041101034  0.6668649974553276
  0.3755808573108865  0.3616289268603978  0.6189401041223661
  0.5326990555055744  0.3719106221839183  0.4862929175212898
  0.8790899697111954  0.5588771021683243  0.6540059108759522
  0.9437026782957858  0.5304426658253760  0.6680008087405298
  0.9686805055511130  0.6099368961582528  0.6210317552290050
  0.8219101205105375  0.4533044596979821  0.4874672083691962
  0.3183060616729279  0.8851098494177805  0.3343849486768491
  0.3573954908786590  0.9754027499225586  0.3664253229175429
  0.4113700905931523  0.9489668135933513  0.3206359899498565
  0.3649434961748526  0.8283665770197857  0.5021598904341076
  0.5515084741438372  0.6698162421532814  0.3363840318149087
  0.6027041802210817  0.6313191185468554  0.3696711192348658
  0.5239281527856576  0.5768666078632094  0.3221854560375093
  0.4461289056181457  0.6213397276175101  0.5030519843939913
  0.0996332461809715  0.4352562410445486  0.3357977135434922
  0.0104057750104118  0.3840068442236984  0.3695142649103644
  0.0343894976190953  0.4628767650737231  0.3218948445709700
  0.1568498651660875  0.5405393161576910  0.5023104876353912
 
  0.00000000E+00  0.00000000E+00  0.00000000E+00
  0.00000000E+00  0.00000000E+00  0.00000000E+00
  0.00000000E+00  0.00000000E+00  0.00000000E+00
  0.00000000E+00  0.00000000E+00  0.00000000E+00
  0.00000000E+00  0.00000000E+00  0.00000000E+00
  0.00000000E+00  0.00000000E+00  0.00000000E+00
  0.00000000E+00  0.00000000E+00  0.00000000E+00
  0.00000000E+00  0.00000000E+00  0.00000000E+00
  0.00000000E+00  0.00000000E+00  0.00000000E+00
  0.00000000E+00  0.00000000E+00  0.00000000E+00
  0.00000000E+00  0.00000000E+00  0.00000000E+00
  0.00000000E+00  0.00000000E+00  0.00000000E+00
  0.00000000E+00  0.00000000E+00  0.00000000E+00
  0.00000000E+00  0.00000000E+00  0.00000000E+00
  0.00000000E+00  0.00000000E+00  0.00000000E+00
  0.00000000E+00  0.00000000E+00  0.00000000E+00
  0.00000000E+00  0.00000000E+00  0.00000000E+00
  0.00000000E+00  0.00000000E+00  0.00000000E+00
  0.00000000E+00  0.00000000E+00  0.00000000E+00
  0.00000000E+00  0.00000000E+00  0.00000000E+00
  0.00000000E+00  0.00000000E+00  0.00000000E+00
  0.00000000E+00  0.00000000E+00  0.00000000E+00
  0.00000000E+00  0.00000000E+00  0.00000000E+00
  0.00000000E+00  0.00000000E+00  0.00000000E+00
  0.00000000E+00  0.00000000E+00  0.00000000E+00
  0.00000000E+00  0.00000000E+00  0.00000000E+00
  0.00000000E+00  0.00000000E+00  0.00000000E+00
  0.00000000E+00  0.00000000E+00  0.00000000E+00
  0.00000000E+00  0.00000000E+00  0.00000000E+00
  0.00000000E+00  0.00000000E+00  0.00000000E+00
  0.00000000E+00  0.00000000E+00  0.00000000E+00
  0.00000000E+00  0.00000000E+00  0.00000000E+00
  0.00000000E+00  0.00000000E+00  0.00000000E+00
  0.00000000E+00  0.00000000E+00  0.00000000E+00
  0.00000000E+00  0.00000000E+00  0.00000000E+00
  0.00000000E+00  0.00000000E+00  0.00000000E+00
  0.00000000E+00  0.00000000E+00  0.00000000E+00
  0.00000000E+00  0.00000000E+00  0.00000000E+00
  0.00000000E+00  0.00000000E+00  0.00000000E+00
  0.00000000E+00  0.00000000E+00  0.00000000E+00
  0.00000000E+00  0.00000000E+00  0.00000000E+00
  0.00000000E+00  0.00000000E+00  0.00000000E+00
  0.00000000E+00  0.00000000E+00  0.00000000E+00
  0.00000000E+00  0.00000000E+00  0.00000000E+00
  0.00000000E+00  0.00000000E+00  0.00000000E+00
  0.00000000E+00  0.00000000E+00  0.00000000E+00
  0.00000000E+00  0.00000000E+00  0.00000000E+00
  0.00000000E+00  0.00000000E+00  0.00000000E+00
  0.00000000E+00  0.00000000E+00  0.00000000E+00
  0.00000000E+00  0.00000000E+00  0.00000000E+00
  0.00000000E+00  0.00000000E+00  0.00000000E+00
  0.00000000E+00  0.00000000E+00  0.00000000E+00
  0.00000000E+00  0.00000000E+00  0.00000000E+00
  0.00000000E+00  0.00000000E+00  0.00000000E+00
  0.00000000E+00  0.00000000E+00  0.00000000E+00
  0.00000000E+00  0.00000000E+00  0.00000000E+00
  0.00000000E+00  0.00000000E+00  0.00000000E+00
  0.00000000E+00  0.00000000E+00  0.00000000E+00
  0.00000000E+00  0.00000000E+00  0.00000000E+00
  0.00000000E+00  0.00000000E+00  0.00000000E+00
  0.00000000E+00  0.00000000E+00  0.00000000E+00
  0.00000000E+00  0.00000000E+00  0.00000000E+00
  0.00000000E+00  0.00000000E+00  0.00000000E+00
  0.00000000E+00  0.00000000E+00  0.00000000E+00
  0.00000000E+00  0.00000000E+00  0.00000000E+00
  0.00000000E+00  0.00000000E+00  0.00000000E+00
  0.00000000E+00  0.00000000E+00  0.00000000E+00
  0.00000000E+00  0.00000000E+00  0.00000000E+00
  0.00000000E+00  0.00000000E+00  0.00000000E+00
  0.00000000E+00  0.00000000E+00  0.00000000E+00
  0.00000000E+00  0.00000000E+00  0.00000000E+00
  0.00000000E+00  0.00000000E+00  0.00000000E+00
  0.00000000E+00  0.00000000E+00  0.00000000E+00
  0.00000000E+00  0.00000000E+00  0.00000000E+00
  0.00000000E+00  0.00000000E+00  0.00000000E+00
  0.00000000E+00  0.00000000E+00  0.00000000E+00
  0.00000000E+00  0.00000000E+00  0.00000000E+00
  0.00000000E+00  0.00000000E+00  0.00000000E+00
  0.00000000E+00  0.00000000E+00  0.00000000E+00
  0.00000000E+00  0.00000000E+00  0.00000000E+00
  0.00000000E+00  0.00000000E+00  0.00000000E+00
  0.00000000E+00  0.00000000E+00  0.00000000E+00
  0.00000000E+00  0.00000000E+00  0.00000000E+00
  0.00000000E+00  0.00000000E+00  0.00000000E+00
  0.00000000E+00  0.00000000E+00  0.00000000E+00
  0.00000000E+00  0.00000000E+00  0.00000000E+00
  0.00000000E+00  0.00000000E+00  0.00000000E+00
  0.00000000E+00  0.00000000E+00  0.00000000E+00
  0.00000000E+00  0.00000000E+00  0.00000000E+00
  0.00000000E+00  0.00000000E+00  0.00000000E+00
