Primitive Cell                          
   1.00000000000000     
    23.0754015195407653   -0.0024657196623124    0.0000000000000000
   -11.5398384784080399   19.9799293955034187    0.0000000000000000
     0.0000000000000000    0.0000000000000000   20.0000000000000000
   N    C    H    O 
    12    66    30    12
Direct
  0.2315939185616713  0.7323378955659763  0.5720687552138415
  0.2939534026863413  0.4924928227798944  0.5705151389013636
  0.5048300932923979  0.2174340136998438  0.5707823136240151
  0.2258021170781532  0.4798931612411081  0.4532756854911710
  0.2859862082420648  0.8008842813795383  0.4546603938905065
  0.4930372992825127  0.2738083092599197  0.4536538631208558
  0.5329999321521086  0.7940951555035483  0.5715328819647354
  0.5476912946495460  0.7402719704025458  0.4540607918091339
  0.8071265267146970  0.2813728806922171  0.5718769326729145
  0.7457739301981547  0.5208369036133860  0.5710481495827935
  0.7532063175670487  0.2118109215660411  0.4548869932273547
  0.8134947473504184  0.5336959651059843  0.4533912054513536
  0.2325756292868704  0.4853458646953968  0.5719557957362156
  0.1982057859605248  0.4747565917490491  0.6378826664561217
  0.0567529851407826  0.5246639917575138  0.5031683136039788
  0.0927932803035318  0.4902281092283545  0.5037904632455223
  0.3196484705875164  0.8223858525484076  0.5124928635272425
  0.2857676005659329  0.7937816473572070  0.5732931277215698
  0.3100786286796762  0.8283866983781110  0.6390207613306274
  0.5040635048624367  0.3065425054756687  0.5119574014721309
  0.4978569270178781  0.2717878690383202  0.5723839142317857
  0.4872997788258999  0.2954791926033593  0.6383879887377759
  0.5005412062525565  0.9692316049311245  0.5031110274477442
  0.4300726115535696  0.9333421457786741  0.5041695308917227
  0.3937808062663350  0.8639176588027198  0.5096986800948073
  0.5016285335679811  0.5255453323292585  0.5030568097095980
  0.5031940301971005  0.4168915656927368  0.5044757506946098
  0.1639772263778880  0.6298805916958443  0.5105212746906105
  0.0943828242135822  0.5950386507182799  0.5058441972631442
  0.2056058066332298  0.7040396626610672  0.5132258227095789
  0.2040571906469779  0.4912237787203821  0.5113792539187472
  0.1622554126224713  0.5235382713269416  0.5090809325881125
  0.1984073706746301  0.5939105194423817  0.5129063147974477
  0.2272736369685759  0.7442531839603390  0.4547843413115729
  0.4982608998061835  0.8618986303367038  0.5103352027739732
  0.5059304415093067  0.0811383279430444  0.5047433275534488
  0.3965612596535308  0.5278538368230912  0.5093199500264376
  0.4312462866709339  0.4929318259974309  0.5050362728231050
  0.3224125550169106  0.4954974758315558  0.5116272814575140
  0.5082294795710141  0.1924044397969027  0.5117675053484092
  0.4278648397255083  0.8276396591027506  0.5134432348214162
  0.5030752137325933  0.6323326996143095  0.5088129603375222
  0.4326870378079946  0.5982522676644280  0.5120504373256693
  0.2824303472407124  0.4778395827201223  0.4530809317437914
  0.4910168047277566  0.2151325574788103  0.4532331475558991
  0.5403629021660237  0.7399966962106390  0.5726837772109263
  0.5497640140843032  0.7151580804352662  0.6385080272996433
  0.5386660050732175  0.0434941465427698  0.5030167639069134
  0.6091324555485045  0.0795078142487711  0.5044034095867929
  0.5362312883948732  0.5960358347243115  0.5038767372869586
  0.5377170666381872  0.4873813535398099  0.5033499787684121
  0.6068287540530690  0.4149078712147514  0.5133319828959060
  0.5364513311693671  0.3807071996845224  0.5098166561272421
  0.5331463013918878  0.9314817994117988  0.5053130826007219
  0.5406875210404039  0.1507242815858305  0.5094562574119479
  0.6080968642145876  0.5200925595795312  0.5054018754028746
  0.5355258976015946  0.7064474019311291  0.5117820373850535
  0.5307750631702248  0.8202559386141957  0.5127781495193346
  0.6110573641005104  0.1851387774807307  0.5127279144149455
  0.5495400360811828  0.7988612201269873  0.4543082017962519
  0.7529594380534661  0.2199324953461357  0.5734060741310074
  0.7281938226543474  0.1861011591857036  0.6394121021379320
  0.8071934878304958  0.5280561860381070  0.5720977573469312
  0.8419295253573296  0.5383570872998718  0.6377533584097463
  0.9824845952525152  0.4884771674567929  0.5029717322430471
  0.9465474507013525  0.5230050536064965  0.5034756597023957
  0.9447429516197019  0.4180969995165142  0.5053832683243371
  0.8751382872094808  0.3833491261824591  0.5100720599493229
  0.6428795625585266  0.4853075633769706  0.5102232591005418
  0.7193709975755667  0.1907139521405625  0.5126604102178405
  0.8333884416693280  0.3091908343913516  0.5129565514639225
  0.8354564820467303  0.5222805206345242  0.5113046107522763
  0.7170523083495368  0.5178382299862321  0.5123109467117999
  0.8408592507183315  0.4194638556444943  0.5127438118527650
  0.8771107385106731  0.4898210145934883  0.5087674893112180
  0.6452804386346429  0.1489720524779159  0.5096326533533855
  0.8118860489715729  0.2684968539377053  0.4548279290321844
  0.7568197715349925  0.5356663226232783  0.4535890739830393
  0.2881404016033571  0.6726727482400818  0.5221891436124153
  0.1502115381681222  0.4754462371530863  0.6358905456576878
  0.0669058145327099  0.4358048218110397  0.5011131096188919
  0.4167639551259654  0.7379105201309031  0.5227331233350867
  0.3540520700891179  0.6094553651399437  0.5208444462379518
  0.3584973214567668  0.8766416982136960  0.6364822952705893
  0.4878050126866142  0.3440791735492752  0.6364058287210241
  0.4016227924677693  0.9593055071231049  0.5017655922148094
  0.4487630986493869  0.3883906032554094  0.5020660553146286
  0.0696070173368000  0.6246862828402939  0.5057083973447050
  0.1988177851075505  0.7287737099072373  0.4081383798131029
  0.4515051555702456  0.0563915574754787  0.5037955509047052
  0.4014677788396881  0.4384973059440114  0.5046477767068538
  0.2980326588871378  0.4655129382873184  0.4061403877545615
  0.5500760384925627  0.6669932836927543  0.6358311459880781
  0.5906656238307164  0.6245122889075461  0.5017489269865649
  0.5875707958839982  0.9561636959771036  0.5045365661256227
  0.5625011263704991  0.8274200748610525  0.4077300484645292
  0.4790567961302514  0.1875067722432320  0.4061216188916035
  0.7511323319340519  0.3408483078081233  0.5223680740791963
  0.6220193556807985  0.2749141842444658  0.5216072262150746
  0.6855166656317948  0.4038997179499049  0.5226374598409720
  0.6799566841837432  0.1376503703969760  0.6369670545556332
  0.8902402381016330  0.5383372417712593  0.6350939303589058
  0.9724746174379675  0.5774169531863222  0.5007538438053558
  0.6376675446210101  0.0536094554308235  0.5025025847198989
  0.9694592348997020  0.3883892065314214  0.5051251695578785
  0.6377958994320281  0.5745246022044057  0.5045702675389592
  0.8404308011447981  0.2835584381025456  0.4082284582839080
  0.7409751754893463  0.5480357374306664  0.4068219516279541
  0.2798816888286026  0.8071749428465935  0.6915455172445917
  0.2194767933500614  0.4651467102516236  0.6900492809515697
  0.4779752320634074  0.2647059681782409  0.6905884474387705
  0.3894562424923862  0.7593335787059132  0.5184781403981304
  0.2667566853011891  0.6239850197931389  0.5173548061816220
  0.4027863885715988  0.6366986905261669  0.5164806215171325
  0.5573875166673403  0.7445872493309622  0.6913042754015635
  0.7578044347331883  0.2081466734850963  0.6920817893222520
  0.8206765945366001  0.5470299612743474  0.6903962440126392
  0.6368102778691309  0.3765750502261369  0.5180611383191902
  0.7725473612153806  0.3895507229533521  0.5176762942423068
  0.6493192901649678  0.2534808098390116  0.5174451777426086
 
  0.00000000E+00  0.00000000E+00  0.00000000E+00
  0.00000000E+00  0.00000000E+00  0.00000000E+00
  0.00000000E+00  0.00000000E+00  0.00000000E+00
  0.00000000E+00  0.00000000E+00  0.00000000E+00
  0.00000000E+00  0.00000000E+00  0.00000000E+00
  0.00000000E+00  0.00000000E+00  0.00000000E+00
  0.00000000E+00  0.00000000E+00  0.00000000E+00
  0.00000000E+00  0.00000000E+00  0.00000000E+00
  0.00000000E+00  0.00000000E+00  0.00000000E+00
  0.00000000E+00  0.00000000E+00  0.00000000E+00
  0.00000000E+00  0.00000000E+00  0.00000000E+00
  0.00000000E+00  0.00000000E+00  0.00000000E+00
  0.00000000E+00  0.00000000E+00  0.00000000E+00
  0.00000000E+00  0.00000000E+00  0.00000000E+00
  0.00000000E+00  0.00000000E+00  0.00000000E+00
  0.00000000E+00  0.00000000E+00  0.00000000E+00
  0.00000000E+00  0.00000000E+00  0.00000000E+00
  0.00000000E+00  0.00000000E+00  0.00000000E+00
  0.00000000E+00  0.00000000E+00  0.00000000E+00
  0.00000000E+00  0.00000000E+00  0.00000000E+00
  0.00000000E+00  0.00000000E+00  0.00000000E+00
  0.00000000E+00  0.00000000E+00  0.00000000E+00
  0.00000000E+00  0.00000000E+00  0.00000000E+00
  0.00000000E+00  0.00000000E+00  0.00000000E+00
  0.00000000E+00  0.00000000E+00  0.00000000E+00
  0.00000000E+00  0.00000000E+00  0.00000000E+00
  0.00000000E+00  0.00000000E+00  0.00000000E+00
  0.00000000E+00  0.00000000E+00  0.00000000E+00
  0.00000000E+00  0.00000000E+00  0.00000000E+00
  0.00000000E+00  0.00000000E+00  0.00000000E+00
  0.00000000E+00  0.00000000E+00  0.00000000E+00
  0.00000000E+00  0.00000000E+00  0.00000000E+00
  0.00000000E+00  0.00000000E+00  0.00000000E+00
  0.00000000E+00  0.00000000E+00  0.00000000E+00
  0.00000000E+00  0.00000000E+00  0.00000000E+00
  0.00000000E+00  0.00000000E+00  0.00000000E+00
  0.00000000E+00  0.00000000E+00  0.00000000E+00
  0.00000000E+00  0.00000000E+00  0.00000000E+00
  0.00000000E+00  0.00000000E+00  0.00000000E+00
  0.00000000E+00  0.00000000E+00  0.00000000E+00
  0.00000000E+00  0.00000000E+00  0.00000000E+00
  0.00000000E+00  0.00000000E+00  0.00000000E+00
  0.00000000E+00  0.00000000E+00  0.00000000E+00
  0.00000000E+00  0.00000000E+00  0.00000000E+00
  0.00000000E+00  0.00000000E+00  0.00000000E+00
  0.00000000E+00  0.00000000E+00  0.00000000E+00
  0.00000000E+00  0.00000000E+00  0.00000000E+00
  0.00000000E+00  0.00000000E+00  0.00000000E+00
  0.00000000E+00  0.00000000E+00  0.00000000E+00
  0.00000000E+00  0.00000000E+00  0.00000000E+00
  0.00000000E+00  0.00000000E+00  0.00000000E+00
  0.00000000E+00  0.00000000E+00  0.00000000E+00
  0.00000000E+00  0.00000000E+00  0.00000000E+00
  0.00000000E+00  0.00000000E+00  0.00000000E+00
  0.00000000E+00  0.00000000E+00  0.00000000E+00
  0.00000000E+00  0.00000000E+00  0.00000000E+00
  0.00000000E+00  0.00000000E+00  0.00000000E+00
  0.00000000E+00  0.00000000E+00  0.00000000E+00
  0.00000000E+00  0.00000000E+00  0.00000000E+00
  0.00000000E+00  0.00000000E+00  0.00000000E+00
  0.00000000E+00  0.00000000E+00  0.00000000E+00
  0.00000000E+00  0.00000000E+00  0.00000000E+00
  0.00000000E+00  0.00000000E+00  0.00000000E+00
  0.00000000E+00  0.00000000E+00  0.00000000E+00
  0.00000000E+00  0.00000000E+00  0.00000000E+00
  0.00000000E+00  0.00000000E+00  0.00000000E+00
  0.00000000E+00  0.00000000E+00  0.00000000E+00
  0.00000000E+00  0.00000000E+00  0.00000000E+00
  0.00000000E+00  0.00000000E+00  0.00000000E+00
  0.00000000E+00  0.00000000E+00  0.00000000E+00
  0.00000000E+00  0.00000000E+00  0.00000000E+00
  0.00000000E+00  0.00000000E+00  0.00000000E+00
  0.00000000E+00  0.00000000E+00  0.00000000E+00
  0.00000000E+00  0.00000000E+00  0.00000000E+00
  0.00000000E+00  0.00000000E+00  0.00000000E+00
  0.00000000E+00  0.00000000E+00  0.00000000E+00
  0.00000000E+00  0.00000000E+00  0.00000000E+00
  0.00000000E+00  0.00000000E+00  0.00000000E+00
  0.00000000E+00  0.00000000E+00  0.00000000E+00
  0.00000000E+00  0.00000000E+00  0.00000000E+00
  0.00000000E+00  0.00000000E+00  0.00000000E+00
  0.00000000E+00  0.00000000E+00  0.00000000E+00
  0.00000000E+00  0.00000000E+00  0.00000000E+00
  0.00000000E+00  0.00000000E+00  0.00000000E+00
  0.00000000E+00  0.00000000E+00  0.00000000E+00
  0.00000000E+00  0.00000000E+00  0.00000000E+00
  0.00000000E+00  0.00000000E+00  0.00000000E+00
  0.00000000E+00  0.00000000E+00  0.00000000E+00
  0.00000000E+00  0.00000000E+00  0.00000000E+00
  0.00000000E+00  0.00000000E+00  0.00000000E+00
  0.00000000E+00  0.00000000E+00  0.00000000E+00
  0.00000000E+00  0.00000000E+00  0.00000000E+00
  0.00000000E+00  0.00000000E+00  0.00000000E+00
  0.00000000E+00  0.00000000E+00  0.00000000E+00
  0.00000000E+00  0.00000000E+00  0.00000000E+00
  0.00000000E+00  0.00000000E+00  0.00000000E+00
  0.00000000E+00  0.00000000E+00  0.00000000E+00
  0.00000000E+00  0.00000000E+00  0.00000000E+00
  0.00000000E+00  0.00000000E+00  0.00000000E+00
  0.00000000E+00  0.00000000E+00  0.00000000E+00
  0.00000000E+00  0.00000000E+00  0.00000000E+00
  0.00000000E+00  0.00000000E+00  0.00000000E+00
  0.00000000E+00  0.00000000E+00  0.00000000E+00
  0.00000000E+00  0.00000000E+00  0.00000000E+00
  0.00000000E+00  0.00000000E+00  0.00000000E+00
  0.00000000E+00  0.00000000E+00  0.00000000E+00
  0.00000000E+00  0.00000000E+00  0.00000000E+00
  0.00000000E+00  0.00000000E+00  0.00000000E+00
  0.00000000E+00  0.00000000E+00  0.00000000E+00
  0.00000000E+00  0.00000000E+00  0.00000000E+00
  0.00000000E+00  0.00000000E+00  0.00000000E+00
  0.00000000E+00  0.00000000E+00  0.00000000E+00
  0.00000000E+00  0.00000000E+00  0.00000000E+00
  0.00000000E+00  0.00000000E+00  0.00000000E+00
  0.00000000E+00  0.00000000E+00  0.00000000E+00
  0.00000000E+00  0.00000000E+00  0.00000000E+00
  0.00000000E+00  0.00000000E+00  0.00000000E+00
  0.00000000E+00  0.00000000E+00  0.00000000E+00
  0.00000000E+00  0.00000000E+00  0.00000000E+00
  0.00000000E+00  0.00000000E+00  0.00000000E+00
