Primitive Cell                          
   1.00000000000000     
    29.5017236139886769    0.0000000000000000    0.0000000000000000
   -14.7508618069943438   25.5492421051414560    0.0000000000000000
     0.0000000000000000    0.0000000000000000   20.0000000000000000
   H    N    O    C 
    36     6     3    60
Direct
  0.5129041679287170  0.8798820963964644  0.5033279874093139
  0.4638440316876355  0.7821081678242408  0.5027755898225692
  0.3669779284677546  0.8798820963964644  0.5033279874093139
  0.3182641361365981  0.7821081678242408  0.5027755898225692
  0.2178918321757592  0.6817358638634019  0.5027755898225692
  0.1201179036035356  0.6330220715322454  0.5033279874093139
  0.2178918321757592  0.5361559683123645  0.5027755898225692
  0.1201179036035356  0.4870958320712830  0.5033279874093139
  0.3182641361365981  0.5361559683123645  0.5027755898225692
  0.3669779284677546  0.4870958320712830  0.5033279874093139
  0.5129041679287170  0.6330220715322454  0.5033279874093139
  0.4638440316876355  0.6817358638634019  0.5027755898225692
  0.4871138833762743  0.1201147166879863  0.5028163501264444
  0.5361583561871583  0.2178453953715689  0.5021612805238362
  0.6330008333117192  0.1201147166879863  0.5028163501264444
  0.6816870391844034  0.2178453953715689  0.5021612805238362
  0.7821546046284311  0.3183129608155966  0.5021612805238362
  0.8798852833120137  0.3669991666882808  0.5028163501264444
  0.7821546046284311  0.4638416438128417  0.5021612805238362
  0.8798852833120137  0.5128861166237257  0.5028163501264444
  0.6816870391844034  0.4638416438128417  0.5021612805238362
  0.6330008333117192  0.5128861166237257  0.5028163501264444
  0.4871138833762743  0.3669991666882808  0.5028163501264444
  0.5361583561871583  0.3183129608155966  0.5021612805238362
  0.5241345219266549  0.4758654780733451  0.6109684377055089
  0.4551732320167332  0.5448267679832668  0.6164455250358927
  0.5241345219266549  0.0482690438533027  0.6109684377055089
  0.4551732320167332  0.9103464640334593  0.6164455250358927
  0.9517309561466973  0.4758654780733451  0.6109684377055089
  0.0896535359665407  0.5448267679832668  0.6164455250358927
  0.4757088351053653  0.5242911648946347  0.3954596559046948
  0.5244724811824000  0.4755275188176000  0.3950013486342812
  0.4757088351053653  0.9514176702107306  0.3954596559046948
  0.5244724811824000  0.0489449623647999  0.3950013486342812
  0.0485823297892694  0.5242911648946347  0.3954596559046948
  0.9510550376352001  0.4755275188176000  0.3950013486342812
  0.3870932682121051  0.6935466341060490  0.5023364967469490
  0.3064533658939510  0.6129067317879020  0.5023364967469490
  0.3064533658939510  0.6935466341060490  0.5023364967469490
  0.6128913985584887  0.3064456992792444  0.5018854789018263
  0.6935543007207556  0.3871086014415113  0.5018854789018263
  0.6935543007207556  0.3064456992792444  0.5018854789018263
  0.4740660437584410  0.5259339562415590  0.6241047789461120
  0.4740660437584410  0.9481320875168890  0.6241047789461120
  0.0518679124831110  0.5259339562415590  0.6241047789461120
  0.0271220974432111  0.5135610487216127  0.5632289517854829
  0.0269833269191793  0.5134916634595896  0.4425456563615739
  0.3590461687341815  0.7180923374683559  0.5023746507596556
  0.3590461687341815  0.6409538312658185  0.5023746507596556
  0.2819076625316441  0.6409538312658185  0.5023746507596556
  0.3880171483445025  0.6119828516554975  0.5027631785224074
  0.4429984872989721  0.6390994842027737  0.5030207275735705
  0.4701922719750371  0.6117896838064425  0.5033831523230532
  0.4432551603133632  0.5567448396866368  0.5031591522429579
  0.3882103161935575  0.5298077280249629  0.5033831523230532
  0.3609005157972263  0.5570015127010279  0.5030207275735705
  0.3880171483445025  0.7760342966890050  0.5027631785224074
  0.4429984872989721  0.8038990030961983  0.5030207275735705
  0.4701922719750371  0.8584025881686017  0.5033831523230532
  0.4432551603133632  0.8865103206267264  0.5031591522429579
  0.3882103161935575  0.8584025881686017  0.5033831523230532
  0.3609005157972263  0.8038990030961983  0.5030207275735705
  0.2239657033109950  0.6119828516554975  0.5027631785224074
  0.1961009969038017  0.6390994842027737  0.5030207275735705
  0.1415974118313983  0.6117896838064425  0.5033831523230532
  0.1134896793732736  0.5567448396866368  0.5031591522429579
  0.1415974118313983  0.5298077280249629  0.5033831523230532
  0.1961009969038017  0.5570015127010279  0.5030207275735705
  0.6409427477335186  0.2818854954670371  0.5019104300423507
  0.6409427477335186  0.3590572522664814  0.5019104300423507
  0.7181145045329700  0.3590572522664814  0.5019104300423507
  0.6119810351843853  0.3880189648156147  0.5021268022081387
  0.5570038513422588  0.3609492857568810  0.5023050953242603
  0.5298240630049804  0.3882658863656090  0.5026903877708904
  0.5567819333442117  0.4432180666557883  0.5029374474815498
  0.6117341136343910  0.4701759369950196  0.5026903877708904
  0.6390507142431190  0.4429961486577412  0.5023050953242603
  0.6119810351843853  0.2239620703687706  0.5021268022081387
  0.5570038513422588  0.1960545655853920  0.5023050953242603
  0.5298240630049804  0.1415581766393714  0.5026903877708904
  0.5567819333442117  0.1135638666884162  0.5029374474815498
  0.6117341136343910  0.1415581766393714  0.5026903877708904
  0.6390507142431190  0.1960545655853920  0.5023050953242603
  0.7760379296312294  0.3880189648156147  0.5021268022081387
  0.8039454344146080  0.3609492857568810  0.5023050953242603
  0.8584418233606286  0.3882658863656090  0.5026903877708904
  0.8864361333115838  0.4432180666557883  0.5029374474815498
  0.8584418233606286  0.4701759369950196  0.5026903877708904
  0.8039454344146080  0.4429961486577412  0.5023050953242603
  0.4724078919199712  0.5275921080800288  0.5025974632967163
  0.4864389512783944  0.5135610487216127  0.5632289517854829
  0.5138237576092735  0.4861762423907194  0.5632287044101787
  0.4724078919199712  0.9448157838399425  0.5025974632967163
  0.4864389512783944  0.9728779025567889  0.5632289517854829
  0.5138237576092735  0.0276475152185540  0.5632287044101787
  0.0551842161600575  0.5275921080800288  0.5025974632967163
  0.9723524847814460  0.4861762423907194  0.5632287044101787
  0.5276275166337570  0.4723724833662430  0.5028533174463305
  0.5137998117687204  0.4862001882312796  0.4422026719795298
  0.4865083365404104  0.5134916634595896  0.4425456563615739
  0.5276275166337570  0.0552550332674997  0.5028533174463305
  0.5137998117687204  0.0275996235374478  0.4422026719795298
  0.4865083365404104  0.9730166730808207  0.4425456563615739
  0.9447449667325003  0.4723724833662430  0.5028533174463305
  0.9724003764625522  0.4862001882312796  0.4422026719795298
 
  0.00000000E+00  0.00000000E+00  0.00000000E+00
  0.00000000E+00  0.00000000E+00  0.00000000E+00
  0.00000000E+00  0.00000000E+00  0.00000000E+00
  0.00000000E+00  0.00000000E+00  0.00000000E+00
  0.00000000E+00  0.00000000E+00  0.00000000E+00
  0.00000000E+00  0.00000000E+00  0.00000000E+00
  0.00000000E+00  0.00000000E+00  0.00000000E+00
  0.00000000E+00  0.00000000E+00  0.00000000E+00
  0.00000000E+00  0.00000000E+00  0.00000000E+00
  0.00000000E+00  0.00000000E+00  0.00000000E+00
  0.00000000E+00  0.00000000E+00  0.00000000E+00
  0.00000000E+00  0.00000000E+00  0.00000000E+00
  0.00000000E+00  0.00000000E+00  0.00000000E+00
  0.00000000E+00  0.00000000E+00  0.00000000E+00
  0.00000000E+00  0.00000000E+00  0.00000000E+00
  0.00000000E+00  0.00000000E+00  0.00000000E+00
  0.00000000E+00  0.00000000E+00  0.00000000E+00
  0.00000000E+00  0.00000000E+00  0.00000000E+00
  0.00000000E+00  0.00000000E+00  0.00000000E+00
  0.00000000E+00  0.00000000E+00  0.00000000E+00
  0.00000000E+00  0.00000000E+00  0.00000000E+00
  0.00000000E+00  0.00000000E+00  0.00000000E+00
  0.00000000E+00  0.00000000E+00  0.00000000E+00
  0.00000000E+00  0.00000000E+00  0.00000000E+00
  0.00000000E+00  0.00000000E+00  0.00000000E+00
  0.00000000E+00  0.00000000E+00  0.00000000E+00
  0.00000000E+00  0.00000000E+00  0.00000000E+00
  0.00000000E+00  0.00000000E+00  0.00000000E+00
  0.00000000E+00  0.00000000E+00  0.00000000E+00
  0.00000000E+00  0.00000000E+00  0.00000000E+00
  0.00000000E+00  0.00000000E+00  0.00000000E+00
  0.00000000E+00  0.00000000E+00  0.00000000E+00
  0.00000000E+00  0.00000000E+00  0.00000000E+00
  0.00000000E+00  0.00000000E+00  0.00000000E+00
  0.00000000E+00  0.00000000E+00  0.00000000E+00
  0.00000000E+00  0.00000000E+00  0.00000000E+00
  0.00000000E+00  0.00000000E+00  0.00000000E+00
  0.00000000E+00  0.00000000E+00  0.00000000E+00
  0.00000000E+00  0.00000000E+00  0.00000000E+00
  0.00000000E+00  0.00000000E+00  0.00000000E+00
  0.00000000E+00  0.00000000E+00  0.00000000E+00
  0.00000000E+00  0.00000000E+00  0.00000000E+00
  0.00000000E+00  0.00000000E+00  0.00000000E+00
  0.00000000E+00  0.00000000E+00  0.00000000E+00
  0.00000000E+00  0.00000000E+00  0.00000000E+00
  0.00000000E+00  0.00000000E+00  0.00000000E+00
  0.00000000E+00  0.00000000E+00  0.00000000E+00
  0.00000000E+00  0.00000000E+00  0.00000000E+00
  0.00000000E+00  0.00000000E+00  0.00000000E+00
  0.00000000E+00  0.00000000E+00  0.00000000E+00
  0.00000000E+00  0.00000000E+00  0.00000000E+00
  0.00000000E+00  0.00000000E+00  0.00000000E+00
  0.00000000E+00  0.00000000E+00  0.00000000E+00
  0.00000000E+00  0.00000000E+00  0.00000000E+00
  0.00000000E+00  0.00000000E+00  0.00000000E+00
  0.00000000E+00  0.00000000E+00  0.00000000E+00
  0.00000000E+00  0.00000000E+00  0.00000000E+00
  0.00000000E+00  0.00000000E+00  0.00000000E+00
  0.00000000E+00  0.00000000E+00  0.00000000E+00
  0.00000000E+00  0.00000000E+00  0.00000000E+00
  0.00000000E+00  0.00000000E+00  0.00000000E+00
  0.00000000E+00  0.00000000E+00  0.00000000E+00
  0.00000000E+00  0.00000000E+00  0.00000000E+00
  0.00000000E+00  0.00000000E+00  0.00000000E+00
  0.00000000E+00  0.00000000E+00  0.00000000E+00
  0.00000000E+00  0.00000000E+00  0.00000000E+00
  0.00000000E+00  0.00000000E+00  0.00000000E+00
  0.00000000E+00  0.00000000E+00  0.00000000E+00
  0.00000000E+00  0.00000000E+00  0.00000000E+00
  0.00000000E+00  0.00000000E+00  0.00000000E+00
  0.00000000E+00  0.00000000E+00  0.00000000E+00
  0.00000000E+00  0.00000000E+00  0.00000000E+00
  0.00000000E+00  0.00000000E+00  0.00000000E+00
  0.00000000E+00  0.00000000E+00  0.00000000E+00
  0.00000000E+00  0.00000000E+00  0.00000000E+00
  0.00000000E+00  0.00000000E+00  0.00000000E+00
  0.00000000E+00  0.00000000E+00  0.00000000E+00
  0.00000000E+00  0.00000000E+00  0.00000000E+00
  0.00000000E+00  0.00000000E+00  0.00000000E+00
  0.00000000E+00  0.00000000E+00  0.00000000E+00
  0.00000000E+00  0.00000000E+00  0.00000000E+00
  0.00000000E+00  0.00000000E+00  0.00000000E+00
  0.00000000E+00  0.00000000E+00  0.00000000E+00
  0.00000000E+00  0.00000000E+00  0.00000000E+00
  0.00000000E+00  0.00000000E+00  0.00000000E+00
  0.00000000E+00  0.00000000E+00  0.00000000E+00
  0.00000000E+00  0.00000000E+00  0.00000000E+00
  0.00000000E+00  0.00000000E+00  0.00000000E+00
  0.00000000E+00  0.00000000E+00  0.00000000E+00
  0.00000000E+00  0.00000000E+00  0.00000000E+00
  0.00000000E+00  0.00000000E+00  0.00000000E+00
  0.00000000E+00  0.00000000E+00  0.00000000E+00
  0.00000000E+00  0.00000000E+00  0.00000000E+00
  0.00000000E+00  0.00000000E+00  0.00000000E+00
  0.00000000E+00  0.00000000E+00  0.00000000E+00
  0.00000000E+00  0.00000000E+00  0.00000000E+00
  0.00000000E+00  0.00000000E+00  0.00000000E+00
  0.00000000E+00  0.00000000E+00  0.00000000E+00
  0.00000000E+00  0.00000000E+00  0.00000000E+00
  0.00000000E+00  0.00000000E+00  0.00000000E+00
  0.00000000E+00  0.00000000E+00  0.00000000E+00
  0.00000000E+00  0.00000000E+00  0.00000000E+00
  0.00000000E+00  0.00000000E+00  0.00000000E+00
  0.00000000E+00  0.00000000E+00  0.00000000E+00
  0.00000000E+00  0.00000000E+00  0.00000000E+00
