Primitive Cell                          
   1.00000000000000     
    22.0341362590342698   -0.0000000057948676    0.0000000000000000
   -11.0170681244986426   19.0821217536689609    0.0000000000000000
     0.0000000000000000    0.0000000000000000   20.0000000000000000
   C    O    N    H 
    42    12    12    18
Direct
  0.3738523361947372  0.1867633908260373  0.4927264617951437
  0.4105526452889521  0.2569201065896536  0.4720601562802358
  0.4834034253052337  0.2935605059676405  0.4727141497895602
  0.4834843896883001  0.1893872334243127  0.5118300246567173
  0.4106285177026479  0.1532280651601141  0.5129313143767078
  0.5979148318614804  0.2988456972210756  0.4923310108540377
  0.5204490507113704  0.2600013129596093  0.4922696230554990
  0.7011543027789244  0.2990691346403977  0.4923310108540377
  0.7009308653596023  0.4020851681385196  0.4923310108540377
  0.7064394940323595  0.1898429193375932  0.4727141497895602
  0.7059028437360126  0.5165156103116999  0.5118300246567173
  0.9657482382973512  0.0341585150370918  0.4934341743514494
  0.0684102767397334  0.0342517617026488  0.4934341743514494
  0.9658414849629082  0.9315897232602666  0.4934341743514494
  0.8129110546313001  0.6261476638052628  0.4927264617951437
  0.8463674613007015  0.5894473547110479  0.4720601562802358
  0.8101570806624068  0.5165965746947663  0.4727141497895602
  0.8519616043133595  0.7039465901738211  0.4930456672024590
  0.9267788761038531  0.8533856246938214  0.4932946667343003
  0.9079994950889514  0.8167279226045494  0.4329360544638448
  0.8701550043740056  0.7437801576004830  0.4340524350403854
  0.8132366091739698  0.1870889453686999  0.4927264617951437
  0.7430798934103464  0.1536325386992985  0.4720601562802358
  0.8519849858604616  0.1480383956866405  0.4930456672024590
  0.9266067485899683  0.0732211238961469  0.4932946667343003
  0.9087284275156051  0.0920005049110486  0.4329360544638448
  0.8736251532264774  0.1298449956259944  0.4340524350403854
  0.2960534098261789  0.1480150141395384  0.4930456672024590
  0.1466143753061786  0.0733932514100317  0.4932946667343003
  0.1832720773954506  0.0912715724843949  0.4329360544638448
  0.2562198423995170  0.1263748467735226  0.4340524350403854
  0.7395522622482460  0.4795509492886367  0.4922696230554990
  0.7425995474574734  0.5893714822973521  0.5129313143767078
  0.8736956111596328  0.7435276264513746  0.5521969287840562
  0.9088615983459860  0.8164826777877536  0.5535111088719518
  0.7399986870403907  0.2604477377517540  0.4922696230554990
  0.8106127665756873  0.2940971562639874  0.5118300246567173
  0.8467719348398859  0.2574004525425266  0.5129313143767078
  0.8698320152917418  0.1263043888403672  0.5521969287840562
  0.9076210794417605  0.0911384016540140  0.5535111088719518
  0.2564723735486183  0.1301679847082582  0.5521969287840562
  0.1835173222122464  0.0923789205582395  0.5535111088719518
  0.7856293887067665  0.6618695761681366  0.3625979406943856
  0.8927197373287967  0.7291754164792295  0.3238288702428989
  0.8762401874613701  0.2143706112932335  0.3625979406943856
  0.8364556791504327  0.1072802626712033  0.3238288702428989
  0.3381304238318634  0.1237598125386299  0.3625979406943856
  0.2708245835207705  0.1635443208495673  0.3238288702428989
  0.8386789313489800  0.7298255112137042  0.6631349487567704
  0.8753782012768738  0.6605523033719933  0.6228848870929085
  0.8911465798647313  0.1613210686510200  0.6631349487567704
  0.7851741020951195  0.1246217987231262  0.6228848870929085
  0.2701744887862958  0.1088534201352687  0.6631349487567704
  0.3394476966280067  0.2148258979048805  0.6228848870929085
  0.6307334479380771  0.2612536065478182  0.4923685322175331
  0.6305201586097411  0.3692665520619229  0.4923685322175331
  0.7387463934521890  0.3694798413902589  0.4923685322175331
  0.0360727851595897  0.0722391362404693  0.4934575393900857
  0.0361663510808796  0.9639272148404103  0.4934575393900857
  0.9277608637595307  0.9638336489191204  0.4934575393900857
  0.8475711804063124  0.7082510860566771  0.3683019585121343
  0.8606799056503576  0.1524288195936876  0.3683019585121343
  0.2917489139433229  0.1393200943496424  0.3683019585121343
  0.8611250017342087  0.7079202180949267  0.6179046935370565
  0.8467952163607251  0.1388749982657913  0.6179046935370565
  0.2920797819050733  0.1532047836392749  0.6179046935370565
  0.3818069110292939  0.2829956100804694  0.4566625126227990
  0.5125683166218451  0.3484659517865225  0.4579070466050581
  0.5127157853542315  0.1636370749610521  0.5263938769729322
  0.3819593445128362  0.0984303495308083  0.5284195145889328
  0.7170043899195306  0.0988113009488316  0.4566625126227990
  0.6515340482134775  0.1641023648353226  0.4579070466050581
  0.6509212896068206  0.4872842146457685  0.5263938769729322
  0.7164710050179721  0.6180406554871638  0.5284195145889328
  0.9011886990511684  0.6181930889707061  0.4566625126227990
  0.8358976351646774  0.4874316833781549  0.4579070466050581
  0.9215309318190776  0.8438300254794981  0.3849875121877844
  0.9222990936604063  0.0784690681809224  0.3849875121877844
  0.1561699745205019  0.0777009063395937  0.3849875121877844
  0.9224765698967730  0.8433684441743878  0.6015689556823816
  0.9208918742776149  0.0775234301032270  0.6015689556823816
  0.8363629250389479  0.3490787103931794  0.5263938769729322
  0.9015696504691917  0.2835289949820279  0.5284195145889328
  0.1566315558256122  0.0791081257223851  0.6015689556823816
 
  0.00000000E+00  0.00000000E+00  0.00000000E+00
  0.00000000E+00  0.00000000E+00  0.00000000E+00
  0.00000000E+00  0.00000000E+00  0.00000000E+00
  0.00000000E+00  0.00000000E+00  0.00000000E+00
  0.00000000E+00  0.00000000E+00  0.00000000E+00
  0.00000000E+00  0.00000000E+00  0.00000000E+00
  0.00000000E+00  0.00000000E+00  0.00000000E+00
  0.00000000E+00  0.00000000E+00  0.00000000E+00
  0.00000000E+00  0.00000000E+00  0.00000000E+00
  0.00000000E+00  0.00000000E+00  0.00000000E+00
  0.00000000E+00  0.00000000E+00  0.00000000E+00
  0.00000000E+00  0.00000000E+00  0.00000000E+00
  0.00000000E+00  0.00000000E+00  0.00000000E+00
  0.00000000E+00  0.00000000E+00  0.00000000E+00
  0.00000000E+00  0.00000000E+00  0.00000000E+00
  0.00000000E+00  0.00000000E+00  0.00000000E+00
  0.00000000E+00  0.00000000E+00  0.00000000E+00
  0.00000000E+00  0.00000000E+00  0.00000000E+00
  0.00000000E+00  0.00000000E+00  0.00000000E+00
  0.00000000E+00  0.00000000E+00  0.00000000E+00
  0.00000000E+00  0.00000000E+00  0.00000000E+00
  0.00000000E+00  0.00000000E+00  0.00000000E+00
  0.00000000E+00  0.00000000E+00  0.00000000E+00
  0.00000000E+00  0.00000000E+00  0.00000000E+00
  0.00000000E+00  0.00000000E+00  0.00000000E+00
  0.00000000E+00  0.00000000E+00  0.00000000E+00
  0.00000000E+00  0.00000000E+00  0.00000000E+00
  0.00000000E+00  0.00000000E+00  0.00000000E+00
  0.00000000E+00  0.00000000E+00  0.00000000E+00
  0.00000000E+00  0.00000000E+00  0.00000000E+00
  0.00000000E+00  0.00000000E+00  0.00000000E+00
  0.00000000E+00  0.00000000E+00  0.00000000E+00
  0.00000000E+00  0.00000000E+00  0.00000000E+00
  0.00000000E+00  0.00000000E+00  0.00000000E+00
  0.00000000E+00  0.00000000E+00  0.00000000E+00
  0.00000000E+00  0.00000000E+00  0.00000000E+00
  0.00000000E+00  0.00000000E+00  0.00000000E+00
  0.00000000E+00  0.00000000E+00  0.00000000E+00
  0.00000000E+00  0.00000000E+00  0.00000000E+00
  0.00000000E+00  0.00000000E+00  0.00000000E+00
  0.00000000E+00  0.00000000E+00  0.00000000E+00
  0.00000000E+00  0.00000000E+00  0.00000000E+00
  0.00000000E+00  0.00000000E+00  0.00000000E+00
  0.00000000E+00  0.00000000E+00  0.00000000E+00
  0.00000000E+00  0.00000000E+00  0.00000000E+00
  0.00000000E+00  0.00000000E+00  0.00000000E+00
  0.00000000E+00  0.00000000E+00  0.00000000E+00
  0.00000000E+00  0.00000000E+00  0.00000000E+00
  0.00000000E+00  0.00000000E+00  0.00000000E+00
  0.00000000E+00  0.00000000E+00  0.00000000E+00
  0.00000000E+00  0.00000000E+00  0.00000000E+00
  0.00000000E+00  0.00000000E+00  0.00000000E+00
  0.00000000E+00  0.00000000E+00  0.00000000E+00
  0.00000000E+00  0.00000000E+00  0.00000000E+00
  0.00000000E+00  0.00000000E+00  0.00000000E+00
  0.00000000E+00  0.00000000E+00  0.00000000E+00
  0.00000000E+00  0.00000000E+00  0.00000000E+00
  0.00000000E+00  0.00000000E+00  0.00000000E+00
  0.00000000E+00  0.00000000E+00  0.00000000E+00
  0.00000000E+00  0.00000000E+00  0.00000000E+00
  0.00000000E+00  0.00000000E+00  0.00000000E+00
  0.00000000E+00  0.00000000E+00  0.00000000E+00
  0.00000000E+00  0.00000000E+00  0.00000000E+00
  0.00000000E+00  0.00000000E+00  0.00000000E+00
  0.00000000E+00  0.00000000E+00  0.00000000E+00
  0.00000000E+00  0.00000000E+00  0.00000000E+00
  0.00000000E+00  0.00000000E+00  0.00000000E+00
  0.00000000E+00  0.00000000E+00  0.00000000E+00
  0.00000000E+00  0.00000000E+00  0.00000000E+00
  0.00000000E+00  0.00000000E+00  0.00000000E+00
  0.00000000E+00  0.00000000E+00  0.00000000E+00
  0.00000000E+00  0.00000000E+00  0.00000000E+00
  0.00000000E+00  0.00000000E+00  0.00000000E+00
  0.00000000E+00  0.00000000E+00  0.00000000E+00
  0.00000000E+00  0.00000000E+00  0.00000000E+00
  0.00000000E+00  0.00000000E+00  0.00000000E+00
  0.00000000E+00  0.00000000E+00  0.00000000E+00
  0.00000000E+00  0.00000000E+00  0.00000000E+00
  0.00000000E+00  0.00000000E+00  0.00000000E+00
  0.00000000E+00  0.00000000E+00  0.00000000E+00
  0.00000000E+00  0.00000000E+00  0.00000000E+00
  0.00000000E+00  0.00000000E+00  0.00000000E+00
  0.00000000E+00  0.00000000E+00  0.00000000E+00
  0.00000000E+00  0.00000000E+00  0.00000000E+00
