Primitive Cell                          
   1.00000000000000     
    29.5018476863683539    0.0000000000000000    0.0000000000000000
   -14.7509238431841823   25.5493495549741674    0.0000000000000000
     0.0000000000000000    0.0000000000000000   20.0000000000000000
   N    H    C 
     6    42    63
Direct
  0.3871135461726780  0.6935567730863355  0.5021101042334877
  0.3064432269136645  0.6128864538273220  0.5021101042334877
  0.3064432269136645  0.6935567730863355  0.5021101042334877
  0.6128838319352283  0.3064419159676106  0.5018731211131353
  0.6935580840323894  0.3871161680647717  0.5018731211131353
  0.6935580840323894  0.3064419159676106  0.5018731211131353
  0.5128852016554291  0.8798376064693514  0.5022425599938956
  0.4638303183646215  0.7821244220259587  0.5021473047982710
  0.3669524048139223  0.8798376064693514  0.5022425599938956
  0.3182941036613443  0.7821244220259587  0.5021473047982710
  0.2178755779740413  0.6817058963386557  0.5021473047982710
  0.1201623935306486  0.6330475951860777  0.5022425599938956
  0.2178755779740413  0.5361696816353785  0.5021473047982710
  0.1201623935306486  0.4871147983445709  0.5022425599938956
  0.3182941036613443  0.5361696816353785  0.5021473047982710
  0.3669524048139223  0.4871147983445709  0.5022425599938956
  0.5128852016554291  0.6330475951860777  0.5022425599938956
  0.4638303183646215  0.6817058963386557  0.5021473047982710
  0.4870705602322687  0.1200304406863424  0.5029555061870497
  0.5360627506988180  0.2176825235111224  0.5017619744028039
  0.6329598804540737  0.1200304406863424  0.5029555061870497
  0.6816197728123115  0.2176825235111224  0.5017619744028039
  0.7823174764888776  0.3183802271876885  0.5017619744028039
  0.8799695593136576  0.3670401195459263  0.5029555061870497
  0.7823174764888776  0.4639372493011820  0.5017619744028039
  0.8799695593136576  0.5129294397677313  0.5029555061870497
  0.6816197728123115  0.4639372493011820  0.5017619744028039
  0.6329598804540737  0.5129294397677313  0.5029555061870497
  0.4870705602322687  0.3670401195459263  0.5029555061870497
  0.5360627506988180  0.3183802271876885  0.5017619744028039
  0.4751529704013464  0.5248470295986536  0.6098303082829517
  0.5137052480853370  0.4862947519146630  0.6731606438839108
  0.5702256174404994  0.4894832130015061  0.6365489749389752
  0.5105167869984939  0.4297743825595006  0.6365489749389752
  0.4751529704013464  0.9503059408026999  0.6098303082829517
  0.5137052480853370  0.0274104961706740  0.6731606438839108
  0.5105167869984939  0.0807424044389933  0.6365489749389752
  0.5702256174404994  0.0807424044389933  0.6365489749389752
  0.0496940591973001  0.5248470295986536  0.6098303082829517
  0.9725895038293260  0.4862947519146630  0.6731606438839108
  0.9192575955610067  0.4297743825595006  0.6365489749389752
  0.9192575955610067  0.4894832130015061  0.6365489749389752
  0.5247149135715787  0.4752850864284213  0.3967887360099311
  0.4760113782690070  0.5239886217309930  0.3948058129769265
  0.5247149135715787  0.0494298271431433  0.3967887360099311
  0.4760113782690070  0.9520227565380210  0.3948058129769265
  0.9505701728568567  0.4752850864284213  0.3967887360099311
  0.0479772434619790  0.5239886217309930  0.3948058129769265
  0.0277037413208703  0.5138518706604316  0.5629633853982909
  0.0270969976994095  0.5135484988497012  0.4423986978491641
  0.3590532862730598  0.7181065725461053  0.5021063557286993
  0.3590532862730598  0.6409467137269402  0.5021063557286993
  0.2818934274538947  0.6409467137269402  0.5021063557286993
  0.3880065562892199  0.6119934437107801  0.5021251689472379
  0.4429843544746817  0.6390678899553563  0.5021599192295980
  0.4701667065533428  0.6117561066918711  0.5022117609812611
  0.4432103238033704  0.5567896761966296  0.5022416146276569
  0.3882438933081289  0.5298332934466572  0.5022117609812611
  0.3609321100446437  0.5570156455253183  0.5021599192295980
  0.3880065562892199  0.7760131125784397  0.5021251689472379
  0.4429843544746817  0.8039164645193182  0.5021599192295980
  0.4701667065533428  0.8584105998614717  0.5022117609812611
  0.4432103238033704  0.8864206476067196  0.5022416146276569
  0.3882438933081289  0.8584105998614717  0.5022117609812611
  0.3609321100446437  0.8039164645193182  0.5021599192295980
  0.2239868874215603  0.6119934437107801  0.5021251689472379
  0.1960835354806818  0.6390678899553563  0.5021599192295980
  0.1415894001385283  0.6117561066918711  0.5022117609812611
  0.1135793523932804  0.5567896761966296  0.5022416146276569
  0.1415894001385283  0.5298332934466572  0.5022117609812611
  0.1960835354806818  0.5570156455253183  0.5021599192295980
  0.6409345305612888  0.2818690611225634  0.5018648377582409
  0.6409345305612888  0.3590654694387112  0.5018648377582409
  0.7181309388774366  0.3590654694387112  0.5018648377582409
  0.6119559192847390  0.3880440807152610  0.5020734119431864
  0.5569655781987422  0.3610172173892181  0.5022257469211411
  0.5297954794690298  0.3883486470682200  0.5029343780119433
  0.5566812314637275  0.4433187685362725  0.5034670303463642
  0.6116513529317800  0.4702045205309702  0.5029343780119433
  0.6389827826107819  0.4430344218012578  0.5022257469211411
  0.6119559192847390  0.2239118385694852  0.5020734119431864
  0.5569655781987422  0.1959483608095169  0.5022257469211411
  0.5297954794690298  0.1414468324008098  0.5029343780119433
  0.5566812314637275  0.1133624629274408  0.5034670303463642
  0.6116513529317800  0.1414468324008098  0.5029343780119433
  0.6389827826107819  0.1959483608095169  0.5022257469211411
  0.7760881614305148  0.3880440807152610  0.5020734119431864
  0.8040516391904831  0.3610172173892181  0.5022257469211411
  0.8585531675991902  0.3883486470682200  0.5029343780119433
  0.8866375370725592  0.4433187685362725  0.5034670303463642
  0.8585531675991902  0.4702045205309702  0.5029343780119433
  0.8040516391904831  0.4430344218012578  0.5022257469211411
  0.4723427616749021  0.5276572383250979  0.5024221797018242
  0.4861481293395684  0.5138518706604316  0.5629633853982909
  0.5135510883601029  0.4864489116398971  0.5651725638515828
  0.5275123856755428  0.4724876143244572  0.5042272859176506
  0.5276290933454106  0.4723709066545894  0.6313872693877869
  0.4723427616749021  0.9446855233498113  0.5024221797018242
  0.4861481293395684  0.9722962586791297  0.5629633853982909
  0.5135510883601029  0.0271021767202058  0.5651725638515828
  0.5275123856755428  0.0550247713510785  0.5042272859176506
  0.5276290933454106  0.0552581866908142  0.6313872693877869
  0.0553144766501887  0.5276572383250979  0.5024221797018242
  0.9728978232797942  0.4864489116398971  0.5651725638515828
  0.9449752286489215  0.4724876143244572  0.5042272859176506
  0.9447418133091858  0.4723709066545894  0.6313872693877869
  0.5137522729041777  0.4862477270958223  0.4436342338321140
  0.4864515011502988  0.5135484988497012  0.4423986978491641
  0.5137522729041777  0.0275045458083554  0.4436342338321140
  0.4864515011502988  0.9729030023005976  0.4423986978491641
  0.9724954541916446  0.4862477270958223  0.4436342338321140
 
  0.00000000E+00  0.00000000E+00  0.00000000E+00
  0.00000000E+00  0.00000000E+00  0.00000000E+00
  0.00000000E+00  0.00000000E+00  0.00000000E+00
  0.00000000E+00  0.00000000E+00  0.00000000E+00
  0.00000000E+00  0.00000000E+00  0.00000000E+00
  0.00000000E+00  0.00000000E+00  0.00000000E+00
  0.00000000E+00  0.00000000E+00  0.00000000E+00
  0.00000000E+00  0.00000000E+00  0.00000000E+00
  0.00000000E+00  0.00000000E+00  0.00000000E+00
  0.00000000E+00  0.00000000E+00  0.00000000E+00
  0.00000000E+00  0.00000000E+00  0.00000000E+00
  0.00000000E+00  0.00000000E+00  0.00000000E+00
  0.00000000E+00  0.00000000E+00  0.00000000E+00
  0.00000000E+00  0.00000000E+00  0.00000000E+00
  0.00000000E+00  0.00000000E+00  0.00000000E+00
  0.00000000E+00  0.00000000E+00  0.00000000E+00
  0.00000000E+00  0.00000000E+00  0.00000000E+00
  0.00000000E+00  0.00000000E+00  0.00000000E+00
  0.00000000E+00  0.00000000E+00  0.00000000E+00
  0.00000000E+00  0.00000000E+00  0.00000000E+00
  0.00000000E+00  0.00000000E+00  0.00000000E+00
  0.00000000E+00  0.00000000E+00  0.00000000E+00
  0.00000000E+00  0.00000000E+00  0.00000000E+00
  0.00000000E+00  0.00000000E+00  0.00000000E+00
  0.00000000E+00  0.00000000E+00  0.00000000E+00
  0.00000000E+00  0.00000000E+00  0.00000000E+00
  0.00000000E+00  0.00000000E+00  0.00000000E+00
  0.00000000E+00  0.00000000E+00  0.00000000E+00
  0.00000000E+00  0.00000000E+00  0.00000000E+00
  0.00000000E+00  0.00000000E+00  0.00000000E+00
  0.00000000E+00  0.00000000E+00  0.00000000E+00
  0.00000000E+00  0.00000000E+00  0.00000000E+00
  0.00000000E+00  0.00000000E+00  0.00000000E+00
  0.00000000E+00  0.00000000E+00  0.00000000E+00
  0.00000000E+00  0.00000000E+00  0.00000000E+00
  0.00000000E+00  0.00000000E+00  0.00000000E+00
  0.00000000E+00  0.00000000E+00  0.00000000E+00
  0.00000000E+00  0.00000000E+00  0.00000000E+00
  0.00000000E+00  0.00000000E+00  0.00000000E+00
  0.00000000E+00  0.00000000E+00  0.00000000E+00
  0.00000000E+00  0.00000000E+00  0.00000000E+00
  0.00000000E+00  0.00000000E+00  0.00000000E+00
  0.00000000E+00  0.00000000E+00  0.00000000E+00
  0.00000000E+00  0.00000000E+00  0.00000000E+00
  0.00000000E+00  0.00000000E+00  0.00000000E+00
  0.00000000E+00  0.00000000E+00  0.00000000E+00
  0.00000000E+00  0.00000000E+00  0.00000000E+00
  0.00000000E+00  0.00000000E+00  0.00000000E+00
  0.00000000E+00  0.00000000E+00  0.00000000E+00
  0.00000000E+00  0.00000000E+00  0.00000000E+00
  0.00000000E+00  0.00000000E+00  0.00000000E+00
  0.00000000E+00  0.00000000E+00  0.00000000E+00
  0.00000000E+00  0.00000000E+00  0.00000000E+00
  0.00000000E+00  0.00000000E+00  0.00000000E+00
  0.00000000E+00  0.00000000E+00  0.00000000E+00
  0.00000000E+00  0.00000000E+00  0.00000000E+00
  0.00000000E+00  0.00000000E+00  0.00000000E+00
  0.00000000E+00  0.00000000E+00  0.00000000E+00
  0.00000000E+00  0.00000000E+00  0.00000000E+00
  0.00000000E+00  0.00000000E+00  0.00000000E+00
  0.00000000E+00  0.00000000E+00  0.00000000E+00
  0.00000000E+00  0.00000000E+00  0.00000000E+00
  0.00000000E+00  0.00000000E+00  0.00000000E+00
  0.00000000E+00  0.00000000E+00  0.00000000E+00
  0.00000000E+00  0.00000000E+00  0.00000000E+00
  0.00000000E+00  0.00000000E+00  0.00000000E+00
  0.00000000E+00  0.00000000E+00  0.00000000E+00
  0.00000000E+00  0.00000000E+00  0.00000000E+00
  0.00000000E+00  0.00000000E+00  0.00000000E+00
  0.00000000E+00  0.00000000E+00  0.00000000E+00
  0.00000000E+00  0.00000000E+00  0.00000000E+00
  0.00000000E+00  0.00000000E+00  0.00000000E+00
  0.00000000E+00  0.00000000E+00  0.00000000E+00
  0.00000000E+00  0.00000000E+00  0.00000000E+00
  0.00000000E+00  0.00000000E+00  0.00000000E+00
  0.00000000E+00  0.00000000E+00  0.00000000E+00
  0.00000000E+00  0.00000000E+00  0.00000000E+00
  0.00000000E+00  0.00000000E+00  0.00000000E+00
  0.00000000E+00  0.00000000E+00  0.00000000E+00
  0.00000000E+00  0.00000000E+00  0.00000000E+00
  0.00000000E+00  0.00000000E+00  0.00000000E+00
  0.00000000E+00  0.00000000E+00  0.00000000E+00
  0.00000000E+00  0.00000000E+00  0.00000000E+00
  0.00000000E+00  0.00000000E+00  0.00000000E+00
  0.00000000E+00  0.00000000E+00  0.00000000E+00
  0.00000000E+00  0.00000000E+00  0.00000000E+00
  0.00000000E+00  0.00000000E+00  0.00000000E+00
  0.00000000E+00  0.00000000E+00  0.00000000E+00
  0.00000000E+00  0.00000000E+00  0.00000000E+00
  0.00000000E+00  0.00000000E+00  0.00000000E+00
  0.00000000E+00  0.00000000E+00  0.00000000E+00
  0.00000000E+00  0.00000000E+00  0.00000000E+00
  0.00000000E+00  0.00000000E+00  0.00000000E+00
  0.00000000E+00  0.00000000E+00  0.00000000E+00
  0.00000000E+00  0.00000000E+00  0.00000000E+00
  0.00000000E+00  0.00000000E+00  0.00000000E+00
  0.00000000E+00  0.00000000E+00  0.00000000E+00
  0.00000000E+00  0.00000000E+00  0.00000000E+00
  0.00000000E+00  0.00000000E+00  0.00000000E+00
  0.00000000E+00  0.00000000E+00  0.00000000E+00
  0.00000000E+00  0.00000000E+00  0.00000000E+00
  0.00000000E+00  0.00000000E+00  0.00000000E+00
  0.00000000E+00  0.00000000E+00  0.00000000E+00
  0.00000000E+00  0.00000000E+00  0.00000000E+00
  0.00000000E+00  0.00000000E+00  0.00000000E+00
  0.00000000E+00  0.00000000E+00  0.00000000E+00
  0.00000000E+00  0.00000000E+00  0.00000000E+00
  0.00000000E+00  0.00000000E+00  0.00000000E+00
  0.00000000E+00  0.00000000E+00  0.00000000E+00
  0.00000000E+00  0.00000000E+00  0.00000000E+00
  0.00000000E+00  0.00000000E+00  0.00000000E+00
