Primitive Cell                          
   1.00000000000000     
    22.2420122426917395    0.0108543065468948    0.0000000000000000
   -11.1110095993938849   19.2469368885362258    0.0000000000000000
     0.0000000000000000    0.0000000000000000   20.0000000000000000
   C    N    H 
    36     9    39
Direct
  0.3620151846457347  0.7387003800042891  0.5071977999815473
  0.2892487354141338  0.6953962176273976  0.5094298057793623
  0.2602280826506558  0.6232618211497041  0.5096179692969613
  0.3034473317251383  0.5936564266572049  0.5072242249552659
  0.3755093932143367  0.6367072368699880  0.5049331761708231
  0.4049851119502321  0.7095747560038532  0.5044574621541997
  0.6303958298761287  0.2601399146823482  0.5240103742809055
  0.7037199008278776  0.2975518028985604  0.5235313486547213
  0.7391262060665156  0.3701967953660130  0.5237397152089613
  0.7017265020888459  0.4061817152710603  0.5236856249535791
  0.6291441192873037  0.3689948917661567  0.5240931288366397
  0.5932134137667546  0.2956010422048294  0.5240257702037283
  0.4905659209360920  0.0298561406594189  0.5598177743777484
  0.4754604759393573  0.9605644555020447  0.5558276385581635
  0.4751002649437837  0.9323044294455798  0.4921099571439242
  0.4600401221061361  0.8585663277969857  0.4867522835111799
  0.5430283151956701  0.5150933368545552  0.5579515822315599
  0.4885904566067580  0.5298164477905232  0.5543502923341137
  0.4551773051131107  0.5225564577698663  0.4920057783925600
  0.3961825129250940  0.5371953439639370  0.4873812159799016
  0.9682059609020541  0.4597786113706590  0.5602537102177081
  0.0375106974375115  0.5138742707471735  0.5575268421253057
  0.0668230494111341  0.5428231522997109  0.4944254354986910
  0.1404562009857599  0.6016944444987615  0.4905659335575194
  0.4887711507977031  0.9736588492637779  0.4352908509149600
  0.5036174242094660  0.0424419266856546  0.4397792880338969
  0.5045721100545393  0.0707859511228648  0.5025875456028430
  0.5235027740395353  0.1458017876697895  0.5088884250783252
  0.4777945575644864  0.5018274786848664  0.4360217828318014
  0.5320172850025529  0.4874187596754496  0.4401110019332535
  0.5649173113423558  0.4941228038483061  0.5016561348790205
  0.6213644345459954  0.4757333874635421  0.5078050012314392
  0.0265451016269935  0.5160211226019698  0.4368718970144201
  0.9577899586493146  0.4620113032365651  0.4400612622639031
  0.9283624916597617  0.4337414067151570  0.5023010949585398
  0.8533095268659778  0.3776890605430410  0.5073490301546713
  0.3892024329284069  0.8105231014134162  0.5092329915456730
  0.4203638480669980  0.6097889876818812  0.5043400957899635
  0.1884842900351913  0.5786667484614938  0.5130541043424657
  0.5968161276169397  0.1880306071441424  0.5253799046368854
  0.5907659790687063  0.4026950445113826  0.5255358231638994
  0.8111966501555088  0.4086403655570479  0.5250713179273134
  0.4637844848173103  0.9205401218785596  0.6129873294990915
  0.4653358806058421  0.5483803596881032  0.6109228412018552
  0.0766046939925644  0.5411928400273496  0.6153144650699147
  0.2798153920850481  0.5372934527028477  0.5066240204422670
  0.4612500416032574  0.7422967505251066  0.5022269696217450
  0.2565358179793549  0.7190133155065510  0.5111009728747291
  0.3548938122206167  0.8254355958613928  0.4942503079417904
  0.4679064464444878  0.6428829009006947  0.4848205599927482
  0.1735767444834266  0.5296803300409039  0.4971877491984884
  0.7301924312946753  0.4627917045062304  0.5237975238136556
  0.5366491394125177  0.2675490810757495  0.5242256436581059
  0.7317701034590769  0.2689870392014697  0.5234302174686363
  0.6260984585803939  0.1671955744452092  0.5104027276850047
  0.5403518926600057  0.3731270470962826  0.5116847355982301
  0.8318868451501018  0.4588845750453032  0.5104946522229525
  0.4914224954011956  0.0522556603749749  0.6087374362560638
  0.4546575746112822  0.9397301347613265  0.6553872000972589
  0.4301864041169878  0.8687837302006116  0.6063530332199107
  0.4689924418689628  0.8472353091247484  0.4349940308151474
  0.4962223681522602  0.8516356889103136  0.5193214573707365
  0.5687515606471933  0.5201037633120436  0.6059024966049904
  0.4971169732751477  0.5623141641934879  0.6512849960918388
  0.4460602420662880  0.5807060954544951  0.6018730489179092
  0.3722738267358210  0.5235027399634973  0.4371062201977551
  0.3555594207250223  0.5041964751239831  0.5236962577539401
  0.9448817659296296  0.4375917865140835  0.6087121459494966
  0.0567101287093053  0.5123680621505926  0.6573177455598298
  0.1284528982117976  0.5595868920372595  0.6094404353677234
  0.1526377848002411  0.6229574824105981  0.4391886671668743
  0.1465771669596307  0.6441185210008200  0.5237334233671902
  0.4878989296698890  0.9511858916494873  0.3864479313098172
  0.5141999188825679  0.0740405376960140  0.3948598610306107
  0.5109525258034040  0.1633683523220881  0.4617295745937184
  0.4922842793136155  0.1514591388729016  0.5486829768371777
  0.4519774463464472  0.4968163418232692  0.3881687305032031
  0.5490699718947099  0.4713806776505152  0.3958139921423296
  0.6506974789875954  0.4873667508759993  0.4602364530366145
  0.6587368632722601  0.5079114303809575  0.5468365989698540
  0.0498223331648262  0.5383831770510952  0.3884997311785270
  0.9270407737473718  0.4416728204567448  0.3945821955562607
  0.8361062251953726  0.3488952628355406  0.4594484786924440
  0.8471919684759612  0.3396768128698398  0.5461193447902559
 
  0.00000000E+00  0.00000000E+00  0.00000000E+00
  0.00000000E+00  0.00000000E+00  0.00000000E+00
  0.00000000E+00  0.00000000E+00  0.00000000E+00
  0.00000000E+00  0.00000000E+00  0.00000000E+00
  0.00000000E+00  0.00000000E+00  0.00000000E+00
  0.00000000E+00  0.00000000E+00  0.00000000E+00
  0.00000000E+00  0.00000000E+00  0.00000000E+00
  0.00000000E+00  0.00000000E+00  0.00000000E+00
  0.00000000E+00  0.00000000E+00  0.00000000E+00
  0.00000000E+00  0.00000000E+00  0.00000000E+00
  0.00000000E+00  0.00000000E+00  0.00000000E+00
  0.00000000E+00  0.00000000E+00  0.00000000E+00
  0.00000000E+00  0.00000000E+00  0.00000000E+00
  0.00000000E+00  0.00000000E+00  0.00000000E+00
  0.00000000E+00  0.00000000E+00  0.00000000E+00
  0.00000000E+00  0.00000000E+00  0.00000000E+00
  0.00000000E+00  0.00000000E+00  0.00000000E+00
  0.00000000E+00  0.00000000E+00  0.00000000E+00
  0.00000000E+00  0.00000000E+00  0.00000000E+00
  0.00000000E+00  0.00000000E+00  0.00000000E+00
  0.00000000E+00  0.00000000E+00  0.00000000E+00
  0.00000000E+00  0.00000000E+00  0.00000000E+00
  0.00000000E+00  0.00000000E+00  0.00000000E+00
  0.00000000E+00  0.00000000E+00  0.00000000E+00
  0.00000000E+00  0.00000000E+00  0.00000000E+00
  0.00000000E+00  0.00000000E+00  0.00000000E+00
  0.00000000E+00  0.00000000E+00  0.00000000E+00
  0.00000000E+00  0.00000000E+00  0.00000000E+00
  0.00000000E+00  0.00000000E+00  0.00000000E+00
  0.00000000E+00  0.00000000E+00  0.00000000E+00
  0.00000000E+00  0.00000000E+00  0.00000000E+00
  0.00000000E+00  0.00000000E+00  0.00000000E+00
  0.00000000E+00  0.00000000E+00  0.00000000E+00
  0.00000000E+00  0.00000000E+00  0.00000000E+00
  0.00000000E+00  0.00000000E+00  0.00000000E+00
  0.00000000E+00  0.00000000E+00  0.00000000E+00
  0.00000000E+00  0.00000000E+00  0.00000000E+00
  0.00000000E+00  0.00000000E+00  0.00000000E+00
  0.00000000E+00  0.00000000E+00  0.00000000E+00
  0.00000000E+00  0.00000000E+00  0.00000000E+00
  0.00000000E+00  0.00000000E+00  0.00000000E+00
  0.00000000E+00  0.00000000E+00  0.00000000E+00
  0.00000000E+00  0.00000000E+00  0.00000000E+00
  0.00000000E+00  0.00000000E+00  0.00000000E+00
  0.00000000E+00  0.00000000E+00  0.00000000E+00
  0.00000000E+00  0.00000000E+00  0.00000000E+00
  0.00000000E+00  0.00000000E+00  0.00000000E+00
  0.00000000E+00  0.00000000E+00  0.00000000E+00
  0.00000000E+00  0.00000000E+00  0.00000000E+00
  0.00000000E+00  0.00000000E+00  0.00000000E+00
  0.00000000E+00  0.00000000E+00  0.00000000E+00
  0.00000000E+00  0.00000000E+00  0.00000000E+00
  0.00000000E+00  0.00000000E+00  0.00000000E+00
  0.00000000E+00  0.00000000E+00  0.00000000E+00
  0.00000000E+00  0.00000000E+00  0.00000000E+00
  0.00000000E+00  0.00000000E+00  0.00000000E+00
  0.00000000E+00  0.00000000E+00  0.00000000E+00
  0.00000000E+00  0.00000000E+00  0.00000000E+00
  0.00000000E+00  0.00000000E+00  0.00000000E+00
  0.00000000E+00  0.00000000E+00  0.00000000E+00
  0.00000000E+00  0.00000000E+00  0.00000000E+00
  0.00000000E+00  0.00000000E+00  0.00000000E+00
  0.00000000E+00  0.00000000E+00  0.00000000E+00
  0.00000000E+00  0.00000000E+00  0.00000000E+00
  0.00000000E+00  0.00000000E+00  0.00000000E+00
  0.00000000E+00  0.00000000E+00  0.00000000E+00
  0.00000000E+00  0.00000000E+00  0.00000000E+00
  0.00000000E+00  0.00000000E+00  0.00000000E+00
  0.00000000E+00  0.00000000E+00  0.00000000E+00
  0.00000000E+00  0.00000000E+00  0.00000000E+00
  0.00000000E+00  0.00000000E+00  0.00000000E+00
  0.00000000E+00  0.00000000E+00  0.00000000E+00
  0.00000000E+00  0.00000000E+00  0.00000000E+00
  0.00000000E+00  0.00000000E+00  0.00000000E+00
  0.00000000E+00  0.00000000E+00  0.00000000E+00
  0.00000000E+00  0.00000000E+00  0.00000000E+00
  0.00000000E+00  0.00000000E+00  0.00000000E+00
  0.00000000E+00  0.00000000E+00  0.00000000E+00
  0.00000000E+00  0.00000000E+00  0.00000000E+00
  0.00000000E+00  0.00000000E+00  0.00000000E+00
  0.00000000E+00  0.00000000E+00  0.00000000E+00
  0.00000000E+00  0.00000000E+00  0.00000000E+00
  0.00000000E+00  0.00000000E+00  0.00000000E+00
  0.00000000E+00  0.00000000E+00  0.00000000E+00
