Primitive Cell                          
   1.00000000000000     
    22.0061253012933982   -0.0679609584930404    0.0000000000000000
   -11.0518964393616912   19.0472776134170516    0.0000000000000000
     0.0000000000000000    0.0000000000000000   20.0000000000000000
   H    C    N 
    18    54    18
Direct
  0.9422617162329843  0.2230287966932138  0.4586190338888798
  0.7085490405524268  0.1020222053336042  0.5130695499722862
  0.0557775422740150  0.1379053299786293  0.5525695660303782
  0.8564411907488818  0.9451940083685173  0.5514750741692040
  0.7117019537493192  0.2802683943764706  0.4194712288776685
  0.9046878076214995  0.2971324914294087  0.4872492305696241
  0.9155294047581464  0.4228784531721672  0.5210461403977860
  0.4872055690026471  0.1010436951419820  0.5587185188105295
  0.9044747482901059  0.6308080065722450  0.4851816749788682
  0.3683101620085907  0.2986173296187218  0.5024430762572933
  0.9571726600482364  0.7423272345997347  0.4967597897645959
  0.2569417361603996  0.2374060682906887  0.4941390480465628
  0.7143141887908939  0.4583500850973365  0.4050822262871847
  0.5411312473004486  0.2808214191195759  0.4262877136551850
  0.0480151469087389  0.9381366003624692  0.5532389601578487
  0.7104190401967827  0.6348638427179338  0.4928630679039685
  0.3621089162364228  0.0995815971645655  0.5126389604030592
  0.5868881112481716  0.5223472269991092  0.5311952681145868
  0.9523009088250447  0.0455478026142018  0.5544223427926696
  0.9135769802652263  0.9717762490527733  0.5545026364947319
  0.0258375105769204  0.0807252434123455  0.5548008748628561
  0.9159764776007790  0.1788942707345385  0.4933472611984158
  0.8497483175478209  0.1599294446947113  0.5212332080773550
  0.7010174777949558  0.1865091195161739  0.4653916263325542
  0.7369608235905574  0.1560770459957084  0.4949282012871024
  0.6236803151921180  0.1533550384912772  0.4596646647799574
  0.5921287988699007  0.1590988585003501  0.3996943314963843
  0.6222111386100266  0.1617688936103008  0.3354595227678558
  0.8107710851861967  0.1948695549652797  0.4993678481331543
  0.8449252754846910  0.4962133079864230  0.4311937234785148
  0.8267422091754923  0.4516441633954003  0.3741713048333466
  0.8115720099523998  0.4714265839926171  0.3108558763424369
  0.9175083873937595  0.0877253269143026  0.5475828710058508
  0.8551066396437292  0.0739445235006642  0.5814090713914126
  0.8285729867192302  0.0260223955122143  0.6367786938069671
  0.8120873690538204  0.2971985212230024  0.4518833816168026
  0.7392799666890895  0.2560141936857150  0.4422881036917872
  0.8478226272719525  0.2660657887240490  0.4801194560159061
  0.8432831610369291  0.3728434224667652  0.4359692439278433
  0.8840691758654984  0.4279964256099831  0.4815849607327749
  0.5010425395570977  0.1535128237204333  0.4613612868037293
  0.5203044799766943  0.1240379950249917  0.5145940128066968
  0.9484065767705161  0.9330576409776441  0.5541243064946144
  0.0224552764702466  0.9693848621436061  0.5554745496638773
  0.0615935771007869  0.0429839874610281  0.5561444270535176
  0.8140116279717091  0.5412112200462289  0.4427629580635681
  0.8487717195453328  0.6074573463264770  0.4733170184938729
  0.4584832362067246  0.2978828190086631  0.4625774786757191
  0.3917086721927845  0.2662854830872661  0.4918141558543425
  0.9215549580038882  0.7607292486353785  0.5121057143880492
  0.2367668565708954  0.1850722373510933  0.5155871294103278
  0.5029521990387948  0.3737865601495329  0.4480814469824068
  0.5403416667292973  0.3976629811849790  0.3867399935855573
  0.8478582330604922  0.7151360177062713  0.5145781209545532
  0.2814429413875388  0.1576435936075882  0.5285944349173235
  0.5126604835396478  0.3592139159535321  0.3258643822894456
  0.8116799436464817  0.6422280427587594  0.4886887041230779
  0.3558171414584379  0.1940276291274188  0.5068924966708508
  0.4892475368655056  0.2568512813049892  0.4494760119739993
  0.7033690856205439  0.5417261401438367  0.4477980951495724
  0.7421762616528511  0.5101830618779672  0.4282785007666163
  0.7384142495105408  0.6079441608535276  0.4779362826241425
  0.4568431923829763  0.1863077385667040  0.4695357757793204
  0.3898830863208076  0.1549033600116374  0.4982468086666572
  0.6261230679920189  0.4965992300787434  0.4402547538205894
  0.9113106689645036  0.8555606412955328  0.5465320481460481
  0.8382435660543308  0.8077704222393862  0.5563464928274513
  0.7898719081850700  0.8264040093998517  0.5846688270260429
  0.1393383431177497  0.0830771793500489  0.5524605050305595
  0.1855434664515414  0.0588998907980383  0.5723271747272065
  0.1624579018908463  0.9951426110371528  0.6095581466196336
  0.5769506579737609  0.4838916877288142  0.4919700224707952
  0.9483068028143578  0.1428849927837348  0.5054638528415225
  0.8216354484187320  0.3886526028676656  0.3795885715232856
  0.6479352831396668  0.1626676396995776  0.2840930887365758
  0.5339762662055705  0.1640005371165785  0.4026777145986955
  0.8002867513572411  0.4899246420183374  0.2599830248041002
  0.8206338971659690  0.1081720204692758  0.5666149196357750
  0.8102503489572754  0.9896997230544500  0.6838514114287761
  0.5829551292411495  0.1283236768889466  0.5141513828334467
  0.8807969857286864  0.4867655161785081  0.4803663632341255
  0.9514424513092052  0.8285803422856404  0.5264876838493038
  0.1680092887220894  0.1483361905205811  0.5263668028121486
  0.6034021575050446  0.4564180206661987  0.3854249856649687
  0.4873435878675778  0.3266727608467264  0.2773132673072922
  0.8077547573742123  0.7396868155054364  0.5390418557591659
  0.7478403439433237  0.8386428274041009  0.6061723566382469
  0.2548414133144590  0.0950191843614974  0.5588322195236159
  0.1445425373267426  0.9436813964880741  0.6401928505969749
  0.5183106029234352  0.4213408322524046  0.4966617965996107
 
  0.00000000E+00  0.00000000E+00  0.00000000E+00
  0.00000000E+00  0.00000000E+00  0.00000000E+00
  0.00000000E+00  0.00000000E+00  0.00000000E+00
  0.00000000E+00  0.00000000E+00  0.00000000E+00
  0.00000000E+00  0.00000000E+00  0.00000000E+00
  0.00000000E+00  0.00000000E+00  0.00000000E+00
  0.00000000E+00  0.00000000E+00  0.00000000E+00
  0.00000000E+00  0.00000000E+00  0.00000000E+00
  0.00000000E+00  0.00000000E+00  0.00000000E+00
  0.00000000E+00  0.00000000E+00  0.00000000E+00
  0.00000000E+00  0.00000000E+00  0.00000000E+00
  0.00000000E+00  0.00000000E+00  0.00000000E+00
  0.00000000E+00  0.00000000E+00  0.00000000E+00
  0.00000000E+00  0.00000000E+00  0.00000000E+00
  0.00000000E+00  0.00000000E+00  0.00000000E+00
  0.00000000E+00  0.00000000E+00  0.00000000E+00
  0.00000000E+00  0.00000000E+00  0.00000000E+00
  0.00000000E+00  0.00000000E+00  0.00000000E+00
  0.00000000E+00  0.00000000E+00  0.00000000E+00
  0.00000000E+00  0.00000000E+00  0.00000000E+00
  0.00000000E+00  0.00000000E+00  0.00000000E+00
  0.00000000E+00  0.00000000E+00  0.00000000E+00
  0.00000000E+00  0.00000000E+00  0.00000000E+00
  0.00000000E+00  0.00000000E+00  0.00000000E+00
  0.00000000E+00  0.00000000E+00  0.00000000E+00
  0.00000000E+00  0.00000000E+00  0.00000000E+00
  0.00000000E+00  0.00000000E+00  0.00000000E+00
  0.00000000E+00  0.00000000E+00  0.00000000E+00
  0.00000000E+00  0.00000000E+00  0.00000000E+00
  0.00000000E+00  0.00000000E+00  0.00000000E+00
  0.00000000E+00  0.00000000E+00  0.00000000E+00
  0.00000000E+00  0.00000000E+00  0.00000000E+00
  0.00000000E+00  0.00000000E+00  0.00000000E+00
  0.00000000E+00  0.00000000E+00  0.00000000E+00
  0.00000000E+00  0.00000000E+00  0.00000000E+00
  0.00000000E+00  0.00000000E+00  0.00000000E+00
  0.00000000E+00  0.00000000E+00  0.00000000E+00
  0.00000000E+00  0.00000000E+00  0.00000000E+00
  0.00000000E+00  0.00000000E+00  0.00000000E+00
  0.00000000E+00  0.00000000E+00  0.00000000E+00
  0.00000000E+00  0.00000000E+00  0.00000000E+00
  0.00000000E+00  0.00000000E+00  0.00000000E+00
  0.00000000E+00  0.00000000E+00  0.00000000E+00
  0.00000000E+00  0.00000000E+00  0.00000000E+00
  0.00000000E+00  0.00000000E+00  0.00000000E+00
  0.00000000E+00  0.00000000E+00  0.00000000E+00
  0.00000000E+00  0.00000000E+00  0.00000000E+00
  0.00000000E+00  0.00000000E+00  0.00000000E+00
  0.00000000E+00  0.00000000E+00  0.00000000E+00
  0.00000000E+00  0.00000000E+00  0.00000000E+00
  0.00000000E+00  0.00000000E+00  0.00000000E+00
  0.00000000E+00  0.00000000E+00  0.00000000E+00
  0.00000000E+00  0.00000000E+00  0.00000000E+00
  0.00000000E+00  0.00000000E+00  0.00000000E+00
  0.00000000E+00  0.00000000E+00  0.00000000E+00
  0.00000000E+00  0.00000000E+00  0.00000000E+00
  0.00000000E+00  0.00000000E+00  0.00000000E+00
  0.00000000E+00  0.00000000E+00  0.00000000E+00
  0.00000000E+00  0.00000000E+00  0.00000000E+00
  0.00000000E+00  0.00000000E+00  0.00000000E+00
  0.00000000E+00  0.00000000E+00  0.00000000E+00
  0.00000000E+00  0.00000000E+00  0.00000000E+00
  0.00000000E+00  0.00000000E+00  0.00000000E+00
  0.00000000E+00  0.00000000E+00  0.00000000E+00
  0.00000000E+00  0.00000000E+00  0.00000000E+00
  0.00000000E+00  0.00000000E+00  0.00000000E+00
  0.00000000E+00  0.00000000E+00  0.00000000E+00
  0.00000000E+00  0.00000000E+00  0.00000000E+00
  0.00000000E+00  0.00000000E+00  0.00000000E+00
  0.00000000E+00  0.00000000E+00  0.00000000E+00
  0.00000000E+00  0.00000000E+00  0.00000000E+00
  0.00000000E+00  0.00000000E+00  0.00000000E+00
  0.00000000E+00  0.00000000E+00  0.00000000E+00
  0.00000000E+00  0.00000000E+00  0.00000000E+00
  0.00000000E+00  0.00000000E+00  0.00000000E+00
  0.00000000E+00  0.00000000E+00  0.00000000E+00
  0.00000000E+00  0.00000000E+00  0.00000000E+00
  0.00000000E+00  0.00000000E+00  0.00000000E+00
  0.00000000E+00  0.00000000E+00  0.00000000E+00
  0.00000000E+00  0.00000000E+00  0.00000000E+00
  0.00000000E+00  0.00000000E+00  0.00000000E+00
  0.00000000E+00  0.00000000E+00  0.00000000E+00
  0.00000000E+00  0.00000000E+00  0.00000000E+00
  0.00000000E+00  0.00000000E+00  0.00000000E+00
  0.00000000E+00  0.00000000E+00  0.00000000E+00
  0.00000000E+00  0.00000000E+00  0.00000000E+00
  0.00000000E+00  0.00000000E+00  0.00000000E+00
  0.00000000E+00  0.00000000E+00  0.00000000E+00
  0.00000000E+00  0.00000000E+00  0.00000000E+00
  0.00000000E+00  0.00000000E+00  0.00000000E+00
