Primitive Cell                          
   1.00000000000000     
    29.2717311393728608    0.0187016655522313    0.0000000000000000
   -14.6195666784254321   25.3111524600225906    0.0000000000000000
     0.0000000000000000    0.0000000000000000   20.0000000000000000
   O    C    N    H 
     6    57    12    30
Direct
  0.4904078426733136  0.5075863069450222  0.3114453398899784
  0.4902564382272416  0.9870576766409656  0.3113441622270017
  0.4491223238601663  0.9043617438629710  0.3497931895551289
  0.0116644952729956  0.5075829305689865  0.3110947398100379
  0.0942696677336983  0.5493800124349164  0.3493944392302168
  0.4491593849927042  0.5490255695103343  0.3498247973873703
  0.4863890404765954  0.5123300457593416  0.4310424181645089
  0.4757825605511243  0.5224755921257298  0.3591063111523454
  0.4712507448107743  0.5278151576102132  0.4902419322256577
  0.2790277526015572  0.6416720369688349  0.5011036107223532
  0.3566926655514422  0.7194264105417503  0.5008747705884886
  0.3566836293816209  0.6415977632571739  0.5009516131591951
  0.3860150601016059  0.7779124388759158  0.4992826972699831
  0.3587470118067912  0.8060808342111443  0.4979593173355923
  0.3862745198137105  0.8609878054366860  0.4946896980675390
  0.4416977825100332  0.8888465515084150  0.4924860755987552
  0.4690017048739534  0.8606682302643023  0.4947556085935787
  0.4414059447615983  0.8057683471120924  0.4979974970230998
  0.2206280871378254  0.6124607509647362  0.4994966131596286
  0.1926861988380253  0.6399598943939040  0.4981358594218364
  0.1378683184355509  0.6125861581826229  0.4946230315335001
  0.1098765204732146  0.5570909524322545  0.4922014330055831
  0.1378272376350935  0.5295598253148555  0.4945255749247721
  0.1926453506400279  0.5570016360947676  0.4980536624559164
  0.3859809065166360  0.6124188768321233  0.4993760225668566
  0.3587075342839654  0.5569614513131711  0.4980250009459866
  0.3862189424648932  0.5295804004938560  0.4947131746641915
  0.4416449276409082  0.5571694354829688  0.4924870429929626
  0.4689523422488477  0.6126679101549257  0.4948145976076503
  0.4413711719904683  0.6399710441455753  0.4980994960215384
  0.7165767999151811  0.3605264378190540  0.4981406592189401
  0.6388360925834391  0.2827399299148112  0.4982184858318703
  0.6388799263344893  0.3606134849490985  0.4981861584179015
  0.6095535486895614  0.2242536279161200  0.4981605701181664
  0.6368247114746808  0.1960772181433299  0.4979588388603062
  0.6092731487830250  0.1411041516755560  0.4971924082873258
  0.5539865078798982  0.1133007040834144  0.4964589026074648
  0.5266447858579326  0.1413058555841715  0.4971319880773493
  0.5541590814621316  0.1962782381596142  0.4979211973258160
  0.7749818381181584  0.3897271608513151  0.4981755095126772
  0.8029939227944283  0.3622891222034923  0.4979266528575934
  0.8578869953590242  0.3897490453183394  0.4970678087745952
  0.8857603817754978  0.4451107791902587  0.4963425566807160
  0.8579284118326953  0.4726226499506367  0.4971747574185628
  0.8030341478805596  0.4451946445097619  0.4980186688142538
  0.6096232336730409  0.3898272383205779  0.4981565631042315
  0.6369095399834919  0.4452896124173122  0.4980047576795741
  0.6093730768236725  0.4727074605867898  0.4973111853767804
  0.5540866872098533  0.4452004080832666  0.4965888019094606
  0.5267266496088823  0.3898342375076425  0.4971948480908566
  0.5542293697059364  0.3623828368137225  0.4979215675709483
  0.4712632270032699  0.9478177238524310  0.4902226517782324
  0.5245874151491847  0.0545270859423894  0.4940937797485532
  0.4862924270854663  0.9783949380474084  0.4309748599607346
  0.4756783997023959  0.9575682124688143  0.3590423470584696
  0.0509912367585059  0.5276766691245527  0.4899145981010022
  0.9444371351928211  0.4744486609562060  0.4938965186304074
  0.0204314812151267  0.5123499460597500  0.4306983034423411
  0.0411547283228444  0.5226017192157428  0.3587405915073987
  0.5247022663099301  0.4745737786043733  0.4942282165058600
  0.5095323534964251  0.0238184235047996  0.5527048040004487
  0.9751243445148816  0.4898493779082500  0.5524753378212637
  0.5095790887536253  0.4901985846237054  0.5527952751882950
  0.4832349275727879  0.5164748062711837  0.5508153440875390
  0.3037021575521379  0.6947459948241388  0.5011452476364653
  0.3849395018797210  0.6946477908255062  0.5008729581437166
  0.3036987255054626  0.6132821450778252  0.5012453901626444
  0.6918403094127612  0.3074476347936397  0.4981209837608134
  0.6105889028357367  0.3075440203171595  0.4983322617680770
  0.6918902928910100  0.3888991377330271  0.4980253803499863
  0.5127779616667425  0.0313805642136629  0.4341063543527426
  0.9675317089459696  0.4859404656207218  0.4339002313808393
  0.5129385157822384  0.4859190541206431  0.4342223705452781
  0.4832361839377057  0.9711861195955152  0.5507802266504243
  0.0276700883181960  0.5161192798844922  0.5504795404351199
  0.1163113519541383  0.6340834920980143  0.4933794913314244
  0.2146155291647602  0.6829542603752188  0.4995805749480056
  0.1162433186323426  0.4864917491836707  0.4931977135624095
  0.2145439618228338  0.5359163940694529  0.4994366970138557
  0.3157696947443824  0.5358090968772942  0.4993093494492413
  0.3648739662453053  0.4865109442903019  0.4934922954280978
  0.4622924565003075  0.6829648510673252  0.4994183993513275
  0.5119603591317201  0.6342213287567304  0.4936770338629444
  0.4623227128914564  0.7837038798399334  0.4992709825537816
  0.5120100758709896  0.8821378804371989  0.4935774508712498
  0.3649567172274075  0.8827238448081829  0.4934597689566331
  0.3158087047913796  0.7842738503019291  0.4992236072109293
  0.8794243872062282  0.3682154164009077  0.4961956736442090
  0.7810251206833030  0.3192729687405631  0.4979806169880945
  0.8794991313630618  0.5157087999900796  0.4963866439505153
  0.7810981831831469  0.4662624938487596  0.4981334859258553
  0.6798626586302419  0.4663694631806550  0.4980228453230851
  0.6307885727676918  0.5157894582210929  0.4965473646305369
  0.5332760767605578  0.3193651600969574  0.4978943072447919
  0.4837025071174210  0.3682710426076028  0.4963561148614701
  0.5332102352279833  0.2183366116757952  0.4979460617883049
  0.4836213568820327  0.1198187953246617  0.4963134741463264
  0.6306855178027959  0.1194473459385534  0.4963963562343778
  0.6797822339480319  0.2179757617117062  0.4979950201385677
  0.4397296071411105  0.8854459302680340  0.3927326131336883
  0.1132049671309474  0.5590484653567671  0.3923012916141602
  0.4397873427557926  0.5585736471049643  0.3927620638753879
  0.5189947788771008  0.0423267553482489  0.6020927588180953
  0.9566831475034405  0.4806861424930631  0.6018864184084265
  0.5190489801851541  0.4811904025615661  0.6021977244409342
 
  0.00000000E+00  0.00000000E+00  0.00000000E+00
  0.00000000E+00  0.00000000E+00  0.00000000E+00
  0.00000000E+00  0.00000000E+00  0.00000000E+00
  0.00000000E+00  0.00000000E+00  0.00000000E+00
  0.00000000E+00  0.00000000E+00  0.00000000E+00
  0.00000000E+00  0.00000000E+00  0.00000000E+00
  0.00000000E+00  0.00000000E+00  0.00000000E+00
  0.00000000E+00  0.00000000E+00  0.00000000E+00
  0.00000000E+00  0.00000000E+00  0.00000000E+00
  0.00000000E+00  0.00000000E+00  0.00000000E+00
  0.00000000E+00  0.00000000E+00  0.00000000E+00
  0.00000000E+00  0.00000000E+00  0.00000000E+00
  0.00000000E+00  0.00000000E+00  0.00000000E+00
  0.00000000E+00  0.00000000E+00  0.00000000E+00
  0.00000000E+00  0.00000000E+00  0.00000000E+00
  0.00000000E+00  0.00000000E+00  0.00000000E+00
  0.00000000E+00  0.00000000E+00  0.00000000E+00
  0.00000000E+00  0.00000000E+00  0.00000000E+00
  0.00000000E+00  0.00000000E+00  0.00000000E+00
  0.00000000E+00  0.00000000E+00  0.00000000E+00
  0.00000000E+00  0.00000000E+00  0.00000000E+00
  0.00000000E+00  0.00000000E+00  0.00000000E+00
  0.00000000E+00  0.00000000E+00  0.00000000E+00
  0.00000000E+00  0.00000000E+00  0.00000000E+00
  0.00000000E+00  0.00000000E+00  0.00000000E+00
  0.00000000E+00  0.00000000E+00  0.00000000E+00
  0.00000000E+00  0.00000000E+00  0.00000000E+00
  0.00000000E+00  0.00000000E+00  0.00000000E+00
  0.00000000E+00  0.00000000E+00  0.00000000E+00
  0.00000000E+00  0.00000000E+00  0.00000000E+00
  0.00000000E+00  0.00000000E+00  0.00000000E+00
  0.00000000E+00  0.00000000E+00  0.00000000E+00
  0.00000000E+00  0.00000000E+00  0.00000000E+00
  0.00000000E+00  0.00000000E+00  0.00000000E+00
  0.00000000E+00  0.00000000E+00  0.00000000E+00
  0.00000000E+00  0.00000000E+00  0.00000000E+00
  0.00000000E+00  0.00000000E+00  0.00000000E+00
  0.00000000E+00  0.00000000E+00  0.00000000E+00
  0.00000000E+00  0.00000000E+00  0.00000000E+00
  0.00000000E+00  0.00000000E+00  0.00000000E+00
  0.00000000E+00  0.00000000E+00  0.00000000E+00
  0.00000000E+00  0.00000000E+00  0.00000000E+00
  0.00000000E+00  0.00000000E+00  0.00000000E+00
  0.00000000E+00  0.00000000E+00  0.00000000E+00
  0.00000000E+00  0.00000000E+00  0.00000000E+00
  0.00000000E+00  0.00000000E+00  0.00000000E+00
  0.00000000E+00  0.00000000E+00  0.00000000E+00
  0.00000000E+00  0.00000000E+00  0.00000000E+00
  0.00000000E+00  0.00000000E+00  0.00000000E+00
  0.00000000E+00  0.00000000E+00  0.00000000E+00
  0.00000000E+00  0.00000000E+00  0.00000000E+00
  0.00000000E+00  0.00000000E+00  0.00000000E+00
  0.00000000E+00  0.00000000E+00  0.00000000E+00
  0.00000000E+00  0.00000000E+00  0.00000000E+00
  0.00000000E+00  0.00000000E+00  0.00000000E+00
  0.00000000E+00  0.00000000E+00  0.00000000E+00
  0.00000000E+00  0.00000000E+00  0.00000000E+00
  0.00000000E+00  0.00000000E+00  0.00000000E+00
  0.00000000E+00  0.00000000E+00  0.00000000E+00
  0.00000000E+00  0.00000000E+00  0.00000000E+00
  0.00000000E+00  0.00000000E+00  0.00000000E+00
  0.00000000E+00  0.00000000E+00  0.00000000E+00
  0.00000000E+00  0.00000000E+00  0.00000000E+00
  0.00000000E+00  0.00000000E+00  0.00000000E+00
  0.00000000E+00  0.00000000E+00  0.00000000E+00
  0.00000000E+00  0.00000000E+00  0.00000000E+00
  0.00000000E+00  0.00000000E+00  0.00000000E+00
  0.00000000E+00  0.00000000E+00  0.00000000E+00
  0.00000000E+00  0.00000000E+00  0.00000000E+00
  0.00000000E+00  0.00000000E+00  0.00000000E+00
  0.00000000E+00  0.00000000E+00  0.00000000E+00
  0.00000000E+00  0.00000000E+00  0.00000000E+00
  0.00000000E+00  0.00000000E+00  0.00000000E+00
  0.00000000E+00  0.00000000E+00  0.00000000E+00
  0.00000000E+00  0.00000000E+00  0.00000000E+00
  0.00000000E+00  0.00000000E+00  0.00000000E+00
  0.00000000E+00  0.00000000E+00  0.00000000E+00
  0.00000000E+00  0.00000000E+00  0.00000000E+00
  0.00000000E+00  0.00000000E+00  0.00000000E+00
  0.00000000E+00  0.00000000E+00  0.00000000E+00
  0.00000000E+00  0.00000000E+00  0.00000000E+00
  0.00000000E+00  0.00000000E+00  0.00000000E+00
  0.00000000E+00  0.00000000E+00  0.00000000E+00
  0.00000000E+00  0.00000000E+00  0.00000000E+00
  0.00000000E+00  0.00000000E+00  0.00000000E+00
  0.00000000E+00  0.00000000E+00  0.00000000E+00
  0.00000000E+00  0.00000000E+00  0.00000000E+00
  0.00000000E+00  0.00000000E+00  0.00000000E+00
  0.00000000E+00  0.00000000E+00  0.00000000E+00
  0.00000000E+00  0.00000000E+00  0.00000000E+00
  0.00000000E+00  0.00000000E+00  0.00000000E+00
  0.00000000E+00  0.00000000E+00  0.00000000E+00
  0.00000000E+00  0.00000000E+00  0.00000000E+00
  0.00000000E+00  0.00000000E+00  0.00000000E+00
  0.00000000E+00  0.00000000E+00  0.00000000E+00
  0.00000000E+00  0.00000000E+00  0.00000000E+00
  0.00000000E+00  0.00000000E+00  0.00000000E+00
  0.00000000E+00  0.00000000E+00  0.00000000E+00
  0.00000000E+00  0.00000000E+00  0.00000000E+00
  0.00000000E+00  0.00000000E+00  0.00000000E+00
  0.00000000E+00  0.00000000E+00  0.00000000E+00
  0.00000000E+00  0.00000000E+00  0.00000000E+00
  0.00000000E+00  0.00000000E+00  0.00000000E+00
  0.00000000E+00  0.00000000E+00  0.00000000E+00
  0.00000000E+00  0.00000000E+00  0.00000000E+00
