Primitive Cell                          
   1.00000000000000     
    21.6073905243259361    0.1000584198470454    0.0000000000000000
   -10.7145313596001053   18.8992278641439633    0.0000000000000000
     0.0000000000000000    0.0000000000000000   20.0000000000000000
   C    H    N 
    36    42    12
Direct
  0.3653854364126801  0.7383985491137537  0.5199663735338973
  0.3638560796914874  0.6343204123083694  0.5295951173157079
  0.2636273697820215  0.6365505673204197  0.5024824654191917
  0.6247789693169210  0.2664862540467681  0.4979266931495090
  0.6397478883459513  0.3764164806264603  0.5072055705279013
  0.7345649957710378  0.3592482988007148  0.5113017344872191
  0.5438743264518280  0.0704435543893354  0.4889165697248217
  0.5114156176061755  0.0422639314737765  0.5510874457272408
  0.4553063853950121  0.9717658143610564  0.5547891239611360
  0.5357065183127148  0.0857496632117432  0.6141819064740375
  0.4219791263421442  0.9420968114437684  0.6217912222599935
  0.6046278081325909  0.1448911763878584  0.4821617367717792
  0.5242990547766624  0.4600216042326508  0.5073570436483053
  0.5089950050758958  0.4715639234242985  0.5732338567083701
  0.4921660337044358  0.5257899767293495  0.5861220032178736
  0.5094669744487632  0.4264953208409779  0.6304021300847182
  0.4727526969124085  0.5353377223860250  0.6563555872341880
  0.5408779689907135  0.4019084104728421  0.4904105902165625
  0.9312773785505897  0.4738145716913067  0.5039483022570010
  0.9724232478993500  0.4744766636715880  0.5590239055225794
  0.0441662917972678  0.4922487465306915  0.5493645308409896
  0.9414020422071516  0.4574341683806509  0.6285445820600586
  0.0885206215882590  0.4964211180635871  0.6092226558301164
  0.8561403423978717  0.4602414313800267  0.5116577957106543
  0.4316673031413458  0.9305077715963606  0.4961519263964362
  0.4641255482220785  0.9596157245309485  0.4349156787745443
  0.5194943490400021  0.0287214603280432  0.4313398877215064
  0.3738857781879190  0.8543042506475800  0.4973260186042907
  0.4935502250342978  0.5695871243214938  0.5333924561025540
  0.5101878080637618  0.5581159283609267  0.4685720742492450
  0.5249388949625953  0.5037403526681885  0.4556475449400779
  0.4741133433449889  0.6269436379628672  0.5433682952070029
  0.0730349431080342  0.5061649631281853  0.4842833759364780
  0.0305684800643746  0.5025901144232421  0.4299689599683987
  0.9607212272023062  0.4871747716473536  0.4397232334114562
  0.1502311405238714  0.5292293628568530  0.4712131861510827
  0.3677623842234468  0.5437410399394196  0.5309592162111727
  0.1743241745254949  0.6368163663044513  0.4746107375737907
  0.4557165226748765  0.8316872128532680  0.5268020499473565
  0.6503621631306729  0.4738978216272187  0.5089028216472826
  0.8229835371781391  0.3499947525431466  0.5058942914879694
  0.5288082313271261  0.1814050109433509  0.4807747849576316
  0.5525701273318830  0.0602856807548733  0.6521533104828663
  0.5796711089657194  0.1390475196691412  0.6054809432724610
  0.4922441807671873  0.0913151091308393  0.6368462110461053
  0.3808566160122169  0.8866200570806697  0.6188617493720940
  0.4618755720765435  0.9454189341564074  0.6580024307434655
  0.3981048756459344  0.9722060486187374  0.6435465541112535
  0.6462424155825772  0.1563941889301645  0.5195688738704192
  0.6301959020599384  0.1511828939332176  0.4329484106320152
  0.5305756534456165  0.3917983786298720  0.6157998329833276
  0.5422078338259979  0.4593638649541845  0.6720637546098516
  0.4556876752134684  0.3933890353022704  0.6507061734557240
  0.4526913201070428  0.5728112946341923  0.6588671802979107
  0.4314231394154362  0.4850056920354220  0.6771072830789890
  0.5186455584485259  0.5541418628645900  0.6902997750018613
  0.5049952375322633  0.3523032780657047  0.5160386946727584
  0.5325884184677534  0.3903309285645662  0.4363499017599111
  0.9657008222979115  0.5042479264566992  0.6612283296629187
  0.8839059043725257  0.4367383660509816  0.6286308052303582
  0.9514522481996011  0.4175300065829717  0.6524017670591320
  0.1446546449076251  0.5176594275717079  0.5968237512930159
  0.0854098019520890  0.5303873536573747  0.6483669792424891
  0.0693809323147718  0.4440297670444266  0.6320629396481579
  0.8506204125558980  0.4871395908202345  0.5560643674043106
  0.8423025952862844  0.4827583506109292  0.4685525996185191
  0.5446912782033024  0.0508932204502202  0.3833640046585316
  0.4456436067482059  0.9273659655620463  0.3897587795570630
  0.3285732449357965  0.8464407079255452  0.5284948605300883
  0.3524910534958963  0.8373734804598172  0.4465147172874779
  0.5369831173545734  0.4946155342781182  0.4047631971337680
  0.5108969262272751  0.5920610529543637  0.4279747153183635
  0.4951173962798947  0.6556129613338442  0.5906772462876688
  0.4977048934327684  0.6666183149286979  0.5033580129868440
  0.9284517898875038  0.4860714629412186  0.3972331071763620
  0.0531409808861483  0.5130504112607426  0.3796692568226021
  0.1698796994185301  0.5002469381664412  0.5014561852661927
  0.1568959139804136  0.5187605389324332  0.4183559282313496
  0.4029409023741195  0.7048544971068438  0.5331351013845094
  0.2938897773767479  0.5964763199721403  0.5143593245248752
  0.2962159803792730  0.7079996812587197  0.5045956641425846
  0.3969853733315318  0.5958913063003592  0.5416831709795602
  0.1934472667132781  0.6039094646661383  0.4866723622452298
  0.4023564917888081  0.8101129482423275  0.5224087902418830
  0.5936331257360195  0.3075688177725695  0.4989232230153107
  0.7110297264370757  0.4060614430186575  0.5139416082412183
  0.6944263526862144  0.2885156627386252  0.5034612977289825
  0.6134418843833558  0.4219782329092112  0.5092582237363246
  0.8058457537708463  0.3848450598704147  0.5162888297976806
  0.5802587335223208  0.1961330828594328  0.4903666002385094
 
  0.00000000E+00  0.00000000E+00  0.00000000E+00
  0.00000000E+00  0.00000000E+00  0.00000000E+00
  0.00000000E+00  0.00000000E+00  0.00000000E+00
  0.00000000E+00  0.00000000E+00  0.00000000E+00
  0.00000000E+00  0.00000000E+00  0.00000000E+00
  0.00000000E+00  0.00000000E+00  0.00000000E+00
  0.00000000E+00  0.00000000E+00  0.00000000E+00
  0.00000000E+00  0.00000000E+00  0.00000000E+00
  0.00000000E+00  0.00000000E+00  0.00000000E+00
  0.00000000E+00  0.00000000E+00  0.00000000E+00
  0.00000000E+00  0.00000000E+00  0.00000000E+00
  0.00000000E+00  0.00000000E+00  0.00000000E+00
  0.00000000E+00  0.00000000E+00  0.00000000E+00
  0.00000000E+00  0.00000000E+00  0.00000000E+00
  0.00000000E+00  0.00000000E+00  0.00000000E+00
  0.00000000E+00  0.00000000E+00  0.00000000E+00
  0.00000000E+00  0.00000000E+00  0.00000000E+00
  0.00000000E+00  0.00000000E+00  0.00000000E+00
  0.00000000E+00  0.00000000E+00  0.00000000E+00
  0.00000000E+00  0.00000000E+00  0.00000000E+00
  0.00000000E+00  0.00000000E+00  0.00000000E+00
  0.00000000E+00  0.00000000E+00  0.00000000E+00
  0.00000000E+00  0.00000000E+00  0.00000000E+00
  0.00000000E+00  0.00000000E+00  0.00000000E+00
  0.00000000E+00  0.00000000E+00  0.00000000E+00
  0.00000000E+00  0.00000000E+00  0.00000000E+00
  0.00000000E+00  0.00000000E+00  0.00000000E+00
  0.00000000E+00  0.00000000E+00  0.00000000E+00
  0.00000000E+00  0.00000000E+00  0.00000000E+00
  0.00000000E+00  0.00000000E+00  0.00000000E+00
  0.00000000E+00  0.00000000E+00  0.00000000E+00
  0.00000000E+00  0.00000000E+00  0.00000000E+00
  0.00000000E+00  0.00000000E+00  0.00000000E+00
  0.00000000E+00  0.00000000E+00  0.00000000E+00
  0.00000000E+00  0.00000000E+00  0.00000000E+00
  0.00000000E+00  0.00000000E+00  0.00000000E+00
  0.00000000E+00  0.00000000E+00  0.00000000E+00
  0.00000000E+00  0.00000000E+00  0.00000000E+00
  0.00000000E+00  0.00000000E+00  0.00000000E+00
  0.00000000E+00  0.00000000E+00  0.00000000E+00
  0.00000000E+00  0.00000000E+00  0.00000000E+00
  0.00000000E+00  0.00000000E+00  0.00000000E+00
  0.00000000E+00  0.00000000E+00  0.00000000E+00
  0.00000000E+00  0.00000000E+00  0.00000000E+00
  0.00000000E+00  0.00000000E+00  0.00000000E+00
  0.00000000E+00  0.00000000E+00  0.00000000E+00
  0.00000000E+00  0.00000000E+00  0.00000000E+00
  0.00000000E+00  0.00000000E+00  0.00000000E+00
  0.00000000E+00  0.00000000E+00  0.00000000E+00
  0.00000000E+00  0.00000000E+00  0.00000000E+00
  0.00000000E+00  0.00000000E+00  0.00000000E+00
  0.00000000E+00  0.00000000E+00  0.00000000E+00
  0.00000000E+00  0.00000000E+00  0.00000000E+00
  0.00000000E+00  0.00000000E+00  0.00000000E+00
  0.00000000E+00  0.00000000E+00  0.00000000E+00
  0.00000000E+00  0.00000000E+00  0.00000000E+00
  0.00000000E+00  0.00000000E+00  0.00000000E+00
  0.00000000E+00  0.00000000E+00  0.00000000E+00
  0.00000000E+00  0.00000000E+00  0.00000000E+00
  0.00000000E+00  0.00000000E+00  0.00000000E+00
  0.00000000E+00  0.00000000E+00  0.00000000E+00
  0.00000000E+00  0.00000000E+00  0.00000000E+00
  0.00000000E+00  0.00000000E+00  0.00000000E+00
  0.00000000E+00  0.00000000E+00  0.00000000E+00
  0.00000000E+00  0.00000000E+00  0.00000000E+00
  0.00000000E+00  0.00000000E+00  0.00000000E+00
  0.00000000E+00  0.00000000E+00  0.00000000E+00
  0.00000000E+00  0.00000000E+00  0.00000000E+00
  0.00000000E+00  0.00000000E+00  0.00000000E+00
  0.00000000E+00  0.00000000E+00  0.00000000E+00
  0.00000000E+00  0.00000000E+00  0.00000000E+00
  0.00000000E+00  0.00000000E+00  0.00000000E+00
  0.00000000E+00  0.00000000E+00  0.00000000E+00
  0.00000000E+00  0.00000000E+00  0.00000000E+00
  0.00000000E+00  0.00000000E+00  0.00000000E+00
  0.00000000E+00  0.00000000E+00  0.00000000E+00
  0.00000000E+00  0.00000000E+00  0.00000000E+00
  0.00000000E+00  0.00000000E+00  0.00000000E+00
  0.00000000E+00  0.00000000E+00  0.00000000E+00
  0.00000000E+00  0.00000000E+00  0.00000000E+00
  0.00000000E+00  0.00000000E+00  0.00000000E+00
  0.00000000E+00  0.00000000E+00  0.00000000E+00
  0.00000000E+00  0.00000000E+00  0.00000000E+00
  0.00000000E+00  0.00000000E+00  0.00000000E+00
  0.00000000E+00  0.00000000E+00  0.00000000E+00
  0.00000000E+00  0.00000000E+00  0.00000000E+00
  0.00000000E+00  0.00000000E+00  0.00000000E+00
  0.00000000E+00  0.00000000E+00  0.00000000E+00
  0.00000000E+00  0.00000000E+00  0.00000000E+00
  0.00000000E+00  0.00000000E+00  0.00000000E+00
